     Program PWSCF v.5.1 starts on  4Apr2020 at 13:25:40

     Current dimensions of program PWSCF are:
     Max number of different atomic species (ntypx) = 10
     Max number of k-points (npk) =  40000
     Max angular momentum in pseudopotentials (lmaxx) =  3

     IMPORTANT: XC functional enforced from input :
     Exchange-correlation      = PBE ( 1  4  3  4 0)
     Any further DFT definition will be discarded
     Please, verify this is what you really want

               file C.pbe-rrkjus.UPF: wavefunction(s)  2S 2P renormalized

     Subspace diagonalization in iterative solution of the eigenvalue problem:
     a serial algorithm will be used

     Title:
     graphene

     bravais-lattice index     =           12
     lattice parameter (alat)  =       4.6627  a.u.
     unit-cell volume          =     711.6007 (a.u.)^3
     number of atoms/cell      =            4
     number of atomic types    =            1
     number of electrons       =        16.00
     number of Kohn-Sham states=           12
     kinetic-energy cutoff     =      40.0000  Ry
     charge density cutoff     =     400.0000  Ry
     convergence threshold     =      1.0E-10
     mixing beta               =       0.3000
     number of iterations used =            8  plain     mixing
     Exchange-correlation      = PBE ( 1  4  3  4 0)

     celldm(1)=   4.662710  celldm(2)=   1.000000  celldm(3)=   8.105698
     celldm(4)=  -0.500000  celldm(5)=   0.000000  celldm(6)=   0.000000

     crystal axes: (cart. coord. in units of alat)
               a(1) = (   1.000000   0.000000   0.000000 )
               a(2) = (  -0.500000   0.866025   0.000000 )
               a(3) = (   0.000000   0.000000   8.105698 )

     reciprocal axes: (cart. coord. in units 2 pi/alat)
               b(1) = (  1.000000  0.577350 -0.000000 )
               b(2) = (  0.000000  1.154701  0.000000 )
               b(3) = (  0.000000 -0.000000  0.123370 )

     PseudoPot. # 1 for C  read from file:
     ../pseudo/C.pbe-rrkjus.UPF
     MD5 check sum: 00fb224312de0c5b6853bd333518df6f
     Pseudo is Ultrasoft, Zval =  4.0
     Generated by new atomic code, or converted to UPF format
     Using radial grid of  627 points,  4 beta functions with:
                l(1) =   0
                l(2) =   0
                l(3) =   1
                l(4) =   1
     Q(r) pseudized with 0 coefficients

     atomic species   valence    mass     pseudopotential
        C              4.00    12.01100     C ( 1.00)

      2 Sym. Ops. (no inversion) found
          (note:  6 additional sym.ops. were found but ignored
           their fractional translations are incommensurate with FFT grid)

                                    s                        frac. trans.

      isym =  1     identity

 cryst.   s( 1) = (     1          0          0      )
                  (     0          1          0      )
                  (     0          0          1      )

 cart.    s( 1) = (  1.0000000  0.0000000  0.0000000 )
                  (  0.0000000  1.0000000  0.0000000 )
                  (  0.0000000  0.0000000  1.0000000 )

      isym =  2     inv. 180 deg rotation - cart. axis [1,0,0]

 cryst.   s( 2) = (    -1          0          0      )
                  (     1          1          0      )
                  (     0          0          1      )

 cart.    s( 2) = ( -1.0000000  0.0000000  0.0000000 )
                  (  0.0000000  1.0000000  0.0000000 )
                  (  0.0000000  0.0000000  1.0000000 )

     point group C_s (m)
     there are  2 classes
     the character table:

       E     s
A'     1.00  1.00
A''    1.00 -1.00

     the symmetry operations in each class:
     E        1
     s        2

   Cartesian axes

     site n.     atom                  positions (alat units)
         1           C   tau(   1) = (   0.0000000   0.0000000   2.0264246  )
         2           C   tau(   2) = (   0.0000000   0.5773284   2.0264246  )
         3           C   tau(   3) = (   0.0000000   0.0000000   3.4530275  )
         4           C   tau(   4) = (   0.0000000   0.5773284   3.4530275  )

   Crystallographic axes

     site n.     atom                  positions (cryst. coord.)
         1           C   tau(   1) = (  0.0000000  0.0000000  0.2500000  )
         2           C   tau(   2) = (  0.3333207  0.6666414  0.2500000  )
         3           C   tau(   3) = (  0.0000000  0.0000000  0.4260000  )
         4           C   tau(   4) = (  0.3333207  0.6666414  0.4260000  )

     number of k points=    43  Marzari-Vanderbilt smearing, width (Ry)=  0.0001
                       cart. coord. in units 2pi/alat
        k(    1) = (   0.0000000   0.0000000   0.0000000), wk =   0.0138889
        k(    2) = (   0.0000000   0.0962250   0.0000000), wk =   0.0277778
        k(    3) = (   0.0000000   0.1924501   0.0000000), wk =   0.0277778
        k(    4) = (   0.0000000   0.2886751   0.0000000), wk =   0.0277778
        k(    5) = (   0.0000000   0.3849002   0.0000000), wk =   0.0277778
        k(    6) = (   0.0000000   0.4811252   0.0000000), wk =   0.0277778
        k(    7) = (   0.0000000  -0.5773503   0.0000000), wk =   0.0138889
        k(    8) = (   0.0833333   0.1443376   0.0000000), wk =   0.0555556
        k(    9) = (   0.0833333   0.2405626   0.0000000), wk =   0.0555556
        k(   10) = (   0.0833333   0.3367877   0.0000000), wk =   0.0555556
        k(   11) = (   0.0833333   0.4330127   0.0000000), wk =   0.0555556
        k(   12) = (   0.0833333   0.5292377   0.0000000), wk =   0.0555556
        k(   13) = (   0.1666667   0.2886751   0.0000000), wk =   0.0555556
        k(   14) = (   0.1666667   0.3849002   0.0000000), wk =   0.0555556
        k(   15) = (   0.1666667   0.4811252   0.0000000), wk =   0.0555556
        k(   16) = (   0.1666667   0.5773503   0.0000000), wk =   0.0277778
        k(   17) = (   0.2500000   0.4330127   0.0000000), wk =   0.0555556
        k(   18) = (   0.2500000   0.5292377   0.0000000), wk =   0.0555556
        k(   19) = (   0.3333333   0.5773503   0.0000000), wk =   0.0277778
        k(   20) = (  -0.0833333   0.0481125   0.0000000), wk =   0.0555556
        k(   21) = (  -0.1666667   0.0962250   0.0000000), wk =   0.0555556
        k(   22) = (  -0.2500000   0.1443376   0.0000000), wk =   0.0555556
        k(   23) = (  -0.3333333   0.1924501   0.0000000), wk =   0.0555556
        k(   24) = (  -0.4166667   0.2405626   0.0000000), wk =   0.0555556
        k(   25) = (   0.5000000  -0.2886751   0.0000000), wk =   0.0277778
        k(   26) = (   0.1666667  -0.0000000   0.0000000), wk =   0.0277778
        k(   27) = (  -0.1666667   0.1924501   0.0000000), wk =   0.0555556
        k(   28) = (   0.2500000   0.0481125   0.0000000), wk =   0.0555556
        k(   29) = (  -0.2500000   0.2405626   0.0000000), wk =   0.0555556
        k(   30) = (   0.3333333   0.0962250   0.0000000), wk =   0.0555556
        k(   31) = (  -0.3333333   0.2886751   0.0000000), wk =   0.0555556
        k(   32) = (   0.4166667   0.1443376   0.0000000), wk =   0.0555556
        k(   33) = (  -0.4166667   0.3367877   0.0000000), wk =   0.0555556
        k(   34) = (   0.5000000   0.1924501   0.0000000), wk =   0.0555556
        k(   35) = (   0.3333333  -0.0000000   0.0000000), wk =   0.0277778
        k(   36) = (  -0.2500000   0.3367877   0.0000000), wk =   0.0555556
        k(   37) = (   0.4166667   0.0481125   0.0000000), wk =   0.0555556
        k(   38) = (  -0.3333333   0.3849002   0.0000000), wk =   0.0555556
        k(   39) = (   0.5000000   0.0962250   0.0000000), wk =   0.0555556
        k(   40) = (  -0.4166667   0.4330127   0.0000000), wk =   0.0555556
        k(   41) = (   0.5000000   0.0000000   0.0000000), wk =   0.0277778
        k(   42) = (  -0.3333333   0.4811252   0.0000000), wk =   0.0555556
        k(   43) = (   0.5833333   0.0481125   0.0000000), wk =   0.0555556

                       cryst. coord.
        k(    1) = (   0.0000000   0.0000000   0.0000000), wk =   0.0138889
        k(    2) = (   0.0000000   0.0833333   0.0000000), wk =   0.0277778
        k(    3) = (   0.0000000   0.1666667   0.0000000), wk =   0.0277778
        k(    4) = (   0.0000000   0.2500000   0.0000000), wk =   0.0277778
        k(    5) = (   0.0000000   0.3333333   0.0000000), wk =   0.0277778
        k(    6) = (   0.0000000   0.4166667   0.0000000), wk =   0.0277778
        k(    7) = (   0.0000000  -0.5000000   0.0000000), wk =   0.0138889
        k(    8) = (   0.0833333   0.0833333   0.0000000), wk =   0.0555556
        k(    9) = (   0.0833333   0.1666667   0.0000000), wk =   0.0555556
        k(   10) = (   0.0833333   0.2500000   0.0000000), wk =   0.0555556
        k(   11) = (   0.0833333   0.3333333   0.0000000), wk =   0.0555556
        k(   12) = (   0.0833333   0.4166667   0.0000000), wk =   0.0555556
        k(   13) = (   0.1666667   0.1666667   0.0000000), wk =   0.0555556
        k(   14) = (   0.1666667   0.2500000   0.0000000), wk =   0.0555556
        k(   15) = (   0.1666667   0.3333333   0.0000000), wk =   0.0555556
        k(   16) = (   0.1666667   0.4166667   0.0000000), wk =   0.0277778
        k(   17) = (   0.2500000   0.2500000   0.0000000), wk =   0.0555556
        k(   18) = (   0.2500000   0.3333333   0.0000000), wk =   0.0555556
        k(   19) = (   0.3333333   0.3333333   0.0000000), wk =   0.0277778
        k(   20) = (  -0.0833333   0.0833333   0.0000000), wk =   0.0555556
        k(   21) = (  -0.1666667   0.1666667   0.0000000), wk =   0.0555556
        k(   22) = (  -0.2500000   0.2500000   0.0000000), wk =   0.0555556
        k(   23) = (  -0.3333333   0.3333333   0.0000000), wk =   0.0555556
        k(   24) = (  -0.4166667   0.4166667   0.0000000), wk =   0.0555556
        k(   25) = (   0.5000000  -0.5000000   0.0000000), wk =   0.0277778
        k(   26) = (   0.1666667  -0.0833333   0.0000000), wk =   0.0277778
        k(   27) = (  -0.1666667   0.2500000   0.0000000), wk =   0.0555556
        k(   28) = (   0.2500000  -0.0833333   0.0000000), wk =   0.0555556
        k(   29) = (  -0.2500000   0.3333333   0.0000000), wk =   0.0555556
        k(   30) = (   0.3333333  -0.0833333   0.0000000), wk =   0.0555556
        k(   31) = (  -0.3333333   0.4166667   0.0000000), wk =   0.0555556
        k(   32) = (   0.4166667  -0.0833333   0.0000000), wk =   0.0555556
        k(   33) = (  -0.4166667   0.5000000   0.0000000), wk =   0.0555556
        k(   34) = (   0.5000000  -0.0833333   0.0000000), wk =   0.0555556
        k(   35) = (   0.3333333  -0.1666667   0.0000000), wk =   0.0277778
        k(   36) = (  -0.2500000   0.4166667   0.0000000), wk =   0.0555556
        k(   37) = (   0.4166667  -0.1666667   0.0000000), wk =   0.0555556
        k(   38) = (  -0.3333333   0.5000000   0.0000000), wk =   0.0555556
        k(   39) = (   0.5000000  -0.1666667   0.0000000), wk =   0.0555556
        k(   40) = (  -0.4166667   0.5833333   0.0000000), wk =   0.0555556
        k(   41) = (   0.5000000  -0.2500000   0.0000000), wk =   0.0277778
        k(   42) = (  -0.3333333   0.5833333   0.0000000), wk =   0.0555556
        k(   43) = (   0.5833333  -0.2500000   0.0000000), wk =   0.0555556

     Largest allocated arrays     est. size (Mb)     dimensions
     Largest temporary arrays     est. size (Mb)     dimensions

     Initial potential from superposition of free atoms

     starting charge   15.99979, renormalised to   16.00000

     negative rho (up, down):  1.103E-05 0.000E+00
     Starting wfc are   16 randomized atomic wfcs

     Self-consistent Calculation

     iteration #  1     ecut=    40.00 Ry     beta=0.30
     Davidson diagonalization with overlap
     ethr =  1.00E-02,  avg # of iterations =  2.8

     negative rho (up, down):  6.722E-06 0.000E+00

          k = 0.0000 0.0000 0.0000     band energies (ev):

   -23.8530 -23.7805 -11.2210 -10.6348  -8.1635  -8.1616  -8.1557  -8.1538
     3.6882   3.6904   3.7116   3.7137

     occupation numbers
     1.0000   1.0000   1.0000   1.0000   1.0000   1.0000   1.0000   1.0000
     0.0000   0.0000   0.0000   0.0000

[...]

          k =-0.0833 0.0481 0.0000     band energies (ev):

[...]

     the Fermi energy is    -3.6420 ev

!    total energy              =     -45.62219731 Ry
     Harris-Foulkes estimate   =     -45.75428632 Ry
     estimated scf accuracy    <       0.39575208 Ry

     The total energy is the sum of the following terms:

     one-electron contribution =    -522.19211813 Ry
     hartree contribution      =     260.98288735 Ry
     xc contribution           =     -13.65587479 Ry
     ewald contribution        =     225.00644935 Ry
     scf correction            =       4.23645892 Ry
     smearing contrib. (-TS)   =       0.00000000 Ry

[...]

          k =-0.3333 0.4811 0.0000     band energies (ev):

[...]

          k = 0.5833 0.0481 0.0000     band energies (ev):

[...]

     one-electron contribution =    -520.05746217 Ry
     hartree contribution      =     263.50249846 Ry
     xc contribution           =     -14.03041251 Ry
     ewald contribution        =     225.00644935 Ry
     scf correction            =       0.00026630 Ry
     smearing contrib. (-TS)   =       0.00000000 Ry

     iteration # 11     ecut=    40.00 Ry     beta=0.30
     Davidson diagonalization with overlap
     ethr =  1.60E-11,  avg # of iterations =  2.0

     negative rho (up, down):  1.384E-06 0.000E+00

     End of self-consistent calculation

          k = 0.0000 0.0000 0.0000 (  3053 PWs)   bands (ev):

[...]

          k =-0.0833 0.0481 0.0000 (  3052 PWs)   bands (ev):

[...]

          k =-0.3333 0.4811 0.0000 (  3013 PWs)   bands (ev):

[...]

          k = 0.5833 0.0481 0.0000 (  3013 PWs)   bands (ev):

   -14.3133 -14.2435 -12.4525 -12.3949 -10.1687 -10.1275  -2.1128  -1.5697
     0.5524   1.0516   9.7510  10.7498

     occupation numbers
     1.0000   1.0000   1.0000   1.0000   1.0000   1.0000   1.0000   1.0000
     0.0000   0.0000   0.0000   0.0000

     the Fermi energy is    -0.6363 ev

!    total energy              =     -45.57866058 Ry
     Harris-Foulkes estimate   =     -45.57866058 Ry
     estimated scf accuracy    <          2.4E-11 Ry

     The total energy is the sum of the following terms:

     one-electron contribution =    -520.05717579 Ry
     hartree contribution      =     263.50248072 Ry
     xc contribution           =     -14.03041486 Ry
     ewald contribution        =     225.00644935 Ry
     smearing contrib. (-TS)   =       0.00000000 Ry

     convergence has been achieved in  11 iterations

     Forces acting on atoms (Ry/au):

     atom    1 type  1   force =     0.00000000   -0.00011461   -0.00187123
     atom    2 type  1   force =     0.00000000    0.00011462   -0.00187121
     atom    3 type  1   force =     0.00000000   -0.00011465    0.00187121
     atom    4 type  1   force =     0.00000000    0.00011464    0.00187123
     The non-local contrib.  to forces
     atom    1 type  1   force =     0.00000000   -0.00003903   -0.00119593
     atom    2 type  1   force =     0.00000000    0.00003906   -0.00119596
     atom    3 type  1   force =     0.00000000   -0.00003908    0.00118539
     atom    4 type  1   force =     0.00000000    0.00003906    0.00118538
     The ionic contribution  to forces
     atom    1 type  1   force =     0.00000000   -0.00037336  -13.84074850
     atom    2 type  1   force =     0.00000000    0.00037336  -13.84074850
     atom    3 type  1   force =     0.00000000   -0.00037336   13.84074850
     atom    4 type  1   force =    -0.00000000    0.00037336   13.84074850
     The local contribution  to forces
     atom    1 type  1   force =     0.00000000    0.00029774   13.84006156
     atom    2 type  1   force =    -0.00000000   -0.00029773   13.84006168
     atom    3 type  1   force =    -0.00000000    0.00029762  -13.84006028
     atom    4 type  1   force =    -0.00000000   -0.00029765  -13.84006022
     The core correction contribution to forces
     atom    1 type  1   force =     0.00000000    0.00000000    0.00000000
     atom    2 type  1   force =     0.00000000    0.00000000    0.00000000
     atom    3 type  1   force =     0.00000000    0.00000000    0.00000000
     atom    4 type  1   force =     0.00000000    0.00000000    0.00000000
     The Hubbard contrib.    to forces
     atom    1 type  1   force =     0.00000000    0.00000000    0.00000000
     atom    2 type  1   force =     0.00000000    0.00000000    0.00000000
     atom    3 type  1   force =     0.00000000    0.00000000    0.00000000
     atom    4 type  1   force =     0.00000000    0.00000000    0.00000000
     The SCF correction term to forces
     atom    1 type  1   force =    -0.00000000    0.00000005    0.00000610
     atom    2 type  1   force =     0.00000000   -0.00000006    0.00000602
     atom    3 type  1   force =     0.00000000    0.00000018   -0.00000795
     atom    4 type  1   force =     0.00000000   -0.00000012   -0.00000798

     Total force =     0.003749     Total SCF correction =     0.000014

     entering subroutine stress ...

          total   stress  (Ry/bohr**3)                   (kbar)     P=   -5.04
  -0.00006584   0.00000000   0.00000000         -9.69      0.00      0.00
   0.00000000  -0.00006556   0.00000000          0.00     -9.64      0.00
   0.00000000   0.00000000   0.00002869          0.00      0.00      4.22

     kinetic stress (kbar)   3525.16     -0.00      0.00
                               -0.00   3525.04      0.00
                                0.00      0.00   4088.12

     local   stress (kbar)-111296.81      0.00     -0.00
                                0.00-111297.49     -0.00
                               -0.00     -0.00 113617.88

     nonloc. stress (kbar)   -152.55      0.00      0.00
                                0.00   -152.53      0.00
                                0.00      0.00   -151.51

     hartree stress (kbar)  54127.61     -0.00     -0.00
                               -0.00  54127.70      0.00
                               -0.00      0.00 -53782.98

     exc-cor stress (kbar)   -891.21      0.00     -0.00
                                0.00   -891.21     -0.00
                               -0.00     -0.00   -924.60

     corecor stress (kbar)      0.00      0.00      0.00
                                0.00      0.00      0.00
                                0.00      0.00      0.00

     ewald   stress (kbar)  54678.12      0.00     -0.00
                                0.00  54678.84      0.00
                               -0.00      0.00 -62842.69

     hubbard stress (kbar)      0.00      0.00      0.00
                                0.00      0.00      0.00
                                0.00      0.00      0.00

     london  stress (kbar)      0.00      0.00      0.00
                                0.00      0.00      0.00
                                0.00      0.00      0.00

     XDM     stress (kbar)      0.00      0.00      0.00
                                0.00      0.00      0.00
                                0.00      0.00      0.00

     dft-nl  stress (kbar)      0.00      0.00      0.00
                                0.00      0.00      0.00
                                0.00      0.00      0.00

     Writing output data file graphene.save

     General routines

     Parallel routines

   This run was terminated on:  13:26:28   4Apr2020

   JOB DONE.