     Program PWSCF v.5.1 starts on 30Apr2020 at 19:47:22

     Current dimensions of program PWSCF are:
     Max number of different atomic species (ntypx) = 10
     Max number of k-points (npk) =  40000
     Max angular momentum in pseudopotentials (lmaxx) =  3

     IMPORTANT: XC functional enforced from input :
     Exchange-correlation      = PBE ( 1  4  3  4 0)
     Any further DFT definition will be discarded
     Please, verify this is what you really want

               file C.pbe-rrkjus.UPF: wavefunction(s)  2S 2P renormalized

     Subspace diagonalization in iterative solution of the eigenvalue problem:
     a serial algorithm will be used

     Generating pointlists ...
     new r_m :   0.2381 (alat units)  1.1104 (a.u.) for type    1

     Title:
     graphene

     bravais-lattice index     =           12
     lattice parameter (alat)  =       4.6627  a.u.
     unit-cell volume          =     711.6007 (a.u.)^3
     number of atoms/cell      =            4
     number of atomic types    =            1
     number of electrons       =        16.00
     number of Kohn-Sham states=           16
     kinetic-energy cutoff     =      40.0000  Ry
     charge density cutoff     =     400.0000  Ry
     convergence threshold     =      1.0E-10
     mixing beta               =       0.3000
     number of iterations used =            8  plain     mixing
     Exchange-correlation      = PBE ( 1  4  3  4 0)

     celldm(1)=   4.662710  celldm(2)=   1.000000  celldm(3)=   8.105698
     celldm(4)=  -0.500000  celldm(5)=   0.000000  celldm(6)=   0.000000

     crystal axes: (cart. coord. in units of alat)
               a(1) = (   1.000000   0.000000   0.000000 )
               a(2) = (  -0.500000   0.866025   0.000000 )
               a(3) = (   0.000000   0.000000   8.105698 )

     reciprocal axes: (cart. coord. in units 2 pi/alat)
               b(1) = (  1.000000  0.577350 -0.000000 )
               b(2) = (  0.000000  1.154701  0.000000 )
               b(3) = (  0.000000 -0.000000  0.123370 )

     PseudoPot. # 1 for C  read from file:
     ../pseudo/C.pbe-rrkjus.UPF
     MD5 check sum: 00fb224312de0c5b6853bd333518df6f
     Pseudo is Ultrasoft, Zval =  4.0
     Generated by new atomic code, or converted to UPF format
     Using radial grid of  627 points,  4 beta functions with:
                l(1) =   0
                l(2) =   0
                l(3) =   1
                l(4) =   1
     Q(r) pseudized with 0 coefficients

     atomic species   valence    mass     pseudopotential
        C              4.00    12.01100     C ( 1.00)

     Starting magnetic structure
     atomic species   magnetization
        C            0.500

      2 Sym. Ops. (no inversion) found
          (note:  2 additional sym.ops. were found but ignored
           their fractional translations are incommensurate with FFT grid)

                                    s                        frac. trans.

      isym =  1     identity

 cryst.   s( 1) = (     1          0          0      )
                  (     0          1          0      )
                  (     0          0          1      )

 cart.    s( 1) = (  1.0000000  0.0000000  0.0000000 )
                  (  0.0000000  1.0000000  0.0000000 )
                  (  0.0000000  0.0000000  1.0000000 )

      isym =  2     inv. 180 deg rotation - cart. axis [1,0,0]

 cryst.   s( 2) = (    -1          0          0      )
                  (     1          1          0      )
                  (     0          0          1      )

 cart.    s( 2) = ( -1.0000000  0.0000000  0.0000000 )
                  (  0.0000000  1.0000000  0.0000000 )
                  (  0.0000000  0.0000000  1.0000000 )

     point group C_s (m)
     there are  2 classes
     the character table:

       E     s
A'     1.00  1.00
A''    1.00 -1.00

     the symmetry operations in each class:
     E        1
     s        2

   Cartesian axes

     site n.     atom                  positions (alat units)
         1           C   tau(   1) = (   0.0000000   0.0000000   2.0264246  )
         2           C   tau(   2) = (   0.0000000   0.5773284   2.0264246  )
         3           C   tau(   3) = (   0.0000000   1.1546567   3.3354949  )
         4           C   tau(   4) = (   0.0000000   0.5773284   3.3354949  )

   Crystallographic axes

     site n.     atom                  positions (cryst. coord.)
         1           C   tau(   1) = (  0.0000000  0.0000000  0.2500000  )
         2           C   tau(   2) = (  0.3333207  0.6666414  0.2500000  )
         3           C   tau(   3) = (  0.6666414  1.3332827  0.4115000  )
         4           C   tau(   4) = (  0.3333207  0.6666414  0.4115000  )

     number of k points=   314  Marzari-Vanderbilt smearing, width (Ry)=  0.0001
                       cart. coord. in units 2pi/alat
        k(    1) = (   0.0000000   0.0000000   0.0000000), wk =   0.0017361
        k(    2) = (   0.0000000   0.0481125   0.0000000), wk =   0.0034722
        k(    3) = (   0.0000000   0.0962250   0.0000000), wk =   0.0034722
        k(    4) = (   0.0000000   0.1443376   0.0000000), wk =   0.0034722
        k(    5) = (   0.0000000   0.1924501   0.0000000), wk =   0.0034722
        k(    6) = (   0.0000000   0.2405626   0.0000000), wk =   0.0034722
        k(    7) = (   0.0000000   0.2886751   0.0000000), wk =   0.0034722
        k(    8) = (   0.0000000   0.3367877   0.0000000), wk =   0.0034722
        k(    9) = (   0.0000000   0.3849002   0.0000000), wk =   0.0034722
        k(   10) = (   0.0000000   0.4330127   0.0000000), wk =   0.0034722
        k(   11) = (   0.0000000   0.4811252   0.0000000), wk =   0.0034722
        k(   12) = (   0.0000000   0.5292377   0.0000000), wk =   0.0034722
        k(   13) = (   0.0000000  -0.5773503   0.0000000), wk =   0.0017361
        k(   14) = (   0.0416667   0.0721688   0.0000000), wk =   0.0069444
        k(   15) = (   0.0416667   0.1202813   0.0000000), wk =   0.0069444
        k(   16) = (   0.0416667   0.1683938   0.0000000), wk =   0.0069444
        k(   17) = (   0.0416667   0.2165064   0.0000000), wk =   0.0069444
        k(   18) = (   0.0416667   0.2646189   0.0000000), wk =   0.0069444
        k(   19) = (   0.0416667   0.3127314   0.0000000), wk =   0.0069444
        k(   20) = (   0.0416667   0.3608439   0.0000000), wk =   0.0069444
        k(   21) = (   0.0416667   0.4089564   0.0000000), wk =   0.0069444
        k(   22) = (   0.0416667   0.4570690   0.0000000), wk =   0.0069444
        k(   23) = (   0.0416667   0.5051815   0.0000000), wk =   0.0069444
        k(   24) = (   0.0416667   0.5532940   0.0000000), wk =   0.0069444
        k(   25) = (   0.0833333   0.1443376   0.0000000), wk =   0.0069444
        k(   26) = (   0.0833333   0.1924501   0.0000000), wk =   0.0069444
        k(   27) = (   0.0833333   0.2405626   0.0000000), wk =   0.0069444
        k(   28) = (   0.0833333   0.2886751   0.0000000), wk =   0.0069444
        k(   29) = (   0.0833333   0.3367877   0.0000000), wk =   0.0069444
        k(   30) = (   0.0833333   0.3849002   0.0000000), wk =   0.0069444
        k(   31) = (   0.0833333   0.4330127   0.0000000), wk =   0.0069444
        k(   32) = (   0.0833333   0.4811252   0.0000000), wk =   0.0069444
        k(   33) = (   0.0833333   0.5292377   0.0000000), wk =   0.0069444
        k(   34) = (   0.0833333   0.5773503   0.0000000), wk =   0.0034722
        k(   35) = (   0.1250000   0.2165064   0.0000000), wk =   0.0069444
        k(   36) = (   0.1250000   0.2646189   0.0000000), wk =   0.0069444
        k(   37) = (   0.1250000   0.3127314   0.0000000), wk =   0.0069444
        k(   38) = (   0.1250000   0.3608439   0.0000000), wk =   0.0069444
        k(   39) = (   0.1250000   0.4089564   0.0000000), wk =   0.0069444
        k(   40) = (   0.1250000   0.4570690   0.0000000), wk =   0.0069444
        k(   41) = (   0.1250000   0.5051815   0.0000000), wk =   0.0069444
        k(   42) = (   0.1250000   0.5532940   0.0000000), wk =   0.0069444
        k(   43) = (   0.1666667   0.2886751   0.0000000), wk =   0.0069444
        k(   44) = (   0.1666667   0.3367877   0.0000000), wk =   0.0069444
        k(   45) = (   0.1666667   0.3849002   0.0000000), wk =   0.0069444
        k(   46) = (   0.1666667   0.4330127   0.0000000), wk =   0.0069444
        k(   47) = (   0.1666667   0.4811252   0.0000000), wk =   0.0069444
        k(   48) = (   0.1666667   0.5292377   0.0000000), wk =   0.0069444
        k(   49) = (   0.1666667   0.5773503   0.0000000), wk =   0.0034722
        k(   50) = (   0.2083333   0.3608439   0.0000000), wk =   0.0069444
        k(   51) = (   0.2083333   0.4089564   0.0000000), wk =   0.0069444
        k(   52) = (   0.2083333   0.4570690   0.0000000), wk =   0.0069444
        k(   53) = (   0.2083333   0.5051815   0.0000000), wk =   0.0069444
        k(   54) = (   0.2083333   0.5532940   0.0000000), wk =   0.0069444
        k(   55) = (   0.2500000   0.4330127   0.0000000), wk =   0.0069444
        k(   56) = (   0.2500000   0.4811252   0.0000000), wk =   0.0069444
        k(   57) = (   0.2500000   0.5292377   0.0000000), wk =   0.0069444
        k(   58) = (   0.2500000   0.5773503   0.0000000), wk =   0.0034722
        k(   59) = (   0.2916667   0.5051815   0.0000000), wk =   0.0069444
        k(   60) = (   0.2916667   0.5532940   0.0000000), wk =   0.0069444
[...]
        k(  300) = (  -0.2916667   0.4089564   0.0000000), wk =   0.0069444
        k(  301) = (   0.5000000   0.0481125   0.0000000), wk =   0.0069444
        k(  302) = (  -0.3333333   0.4330127   0.0000000), wk =   0.0069444
        k(  303) = (   0.5416667   0.0721688   0.0000000), wk =   0.0069444
        k(  304) = (  -0.3750000   0.4570690   0.0000000), wk =   0.0069444
        k(  305) = (   0.5833333   0.0962250   0.0000000), wk =   0.0069444
        k(  306) = (   0.5000000   0.0000000   0.0000000), wk =   0.0034722
        k(  307) = (  -0.2916667   0.4570690   0.0000000), wk =   0.0069444
        k(  308) = (   0.5416667   0.0240563   0.0000000), wk =   0.0069444
        k(  309) = (  -0.3333333   0.4811252   0.0000000), wk =   0.0069444
        k(  310) = (   0.5833333   0.0481125   0.0000000), wk =   0.0069444
        k(  311) = (  -0.3750000   0.5051815   0.0000000), wk =   0.0069444
        k(  312) = (   0.5833333   0.0000000   0.0000000), wk =   0.0034722
        k(  313) = (  -0.3333333   0.5292377   0.0000000), wk =   0.0069444
        k(  314) = (   0.6250000   0.0240563   0.0000000), wk =   0.0069444

                       cryst. coord.
        k(    1) = (   0.0000000   0.0000000   0.0000000), wk =   0.0017361
        k(    2) = (   0.0000000   0.0416667   0.0000000), wk =   0.0034722
        k(    3) = (   0.0000000   0.0833333   0.0000000), wk =   0.0034722
        k(    4) = (   0.0000000   0.1250000   0.0000000), wk =   0.0034722
        k(    5) = (   0.0000000   0.1666667   0.0000000), wk =   0.0034722
        k(    6) = (   0.0000000   0.2083333   0.0000000), wk =   0.0034722
        k(    7) = (   0.0000000   0.2500000   0.0000000), wk =   0.0034722
        k(    8) = (   0.0000000   0.2916667   0.0000000), wk =   0.0034722
        k(    9) = (   0.0000000   0.3333333   0.0000000), wk =   0.0034722
        k(   10) = (   0.0000000   0.3750000   0.0000000), wk =   0.0034722
        k(   11) = (   0.0000000   0.4166667   0.0000000), wk =   0.0034722
        k(   12) = (   0.0000000   0.4583333   0.0000000), wk =   0.0034722
        k(   13) = (   0.0000000  -0.5000000   0.0000000), wk =   0.0017361
        k(   14) = (   0.0416667   0.0416667   0.0000000), wk =   0.0069444
        k(   15) = (   0.0416667   0.0833333   0.0000000), wk =   0.0069444
        k(   16) = (   0.0416667   0.1250000   0.0000000), wk =   0.0069444
        k(   17) = (   0.0416667   0.1666667   0.0000000), wk =   0.0069444
        k(   18) = (   0.0416667   0.2083333   0.0000000), wk =   0.0069444
        k(   19) = (   0.0416667   0.2500000   0.0000000), wk =   0.0069444
        k(   20) = (   0.0416667   0.2916667   0.0000000), wk =   0.0069444
        k(   21) = (   0.0416667   0.3333333   0.0000000), wk =   0.0069444
        k(   22) = (   0.0416667   0.3750000   0.0000000), wk =   0.0069444
        k(   23) = (   0.0416667   0.4166667   0.0000000), wk =   0.0069444
        k(   24) = (   0.0416667   0.4583333   0.0000000), wk =   0.0069444
        k(   25) = (   0.0833333   0.0833333   0.0000000), wk =   0.0069444
        k(   26) = (   0.0833333   0.1250000   0.0000000), wk =   0.0069444
        k(   27) = (   0.0833333   0.1666667   0.0000000), wk =   0.0069444
        k(   28) = (   0.0833333   0.2083333   0.0000000), wk =   0.0069444
        k(   29) = (   0.0833333   0.2500000   0.0000000), wk =   0.0069444
        k(   30) = (   0.0833333   0.2916667   0.0000000), wk =   0.0069444
        k(   31) = (   0.0833333   0.3333333   0.0000000), wk =   0.0069444
        k(   32) = (   0.0833333   0.3750000   0.0000000), wk =   0.0069444
        k(   33) = (   0.0833333   0.4166667   0.0000000), wk =   0.0069444
        k(   34) = (   0.0833333   0.4583333   0.0000000), wk =   0.0034722
        k(   35) = (   0.1250000   0.1250000   0.0000000), wk =   0.0069444
        k(   36) = (   0.1250000   0.1666667   0.0000000), wk =   0.0069444
        k(   37) = (   0.1250000   0.2083333   0.0000000), wk =   0.0069444
        k(   38) = (   0.1250000   0.2500000   0.0000000), wk =   0.0069444
        k(   39) = (   0.1250000   0.2916667   0.0000000), wk =   0.0069444
        k(   40) = (   0.1250000   0.3333333   0.0000000), wk =   0.0069444
        k(   41) = (   0.1250000   0.3750000   0.0000000), wk =   0.0069444
        k(   42) = (   0.1250000   0.4166667   0.0000000), wk =   0.0069444
        k(   43) = (   0.1666667   0.1666667   0.0000000), wk =   0.0069444
        k(   44) = (   0.1666667   0.2083333   0.0000000), wk =   0.0069444
        k(   45) = (   0.1666667   0.2500000   0.0000000), wk =   0.0069444
        k(   46) = (   0.1666667   0.2916667   0.0000000), wk =   0.0069444
        k(   47) = (   0.1666667   0.3333333   0.0000000), wk =   0.0069444
        k(   48) = (   0.1666667   0.3750000   0.0000000), wk =   0.0069444
        k(   49) = (   0.1666667   0.4166667   0.0000000), wk =   0.0034722
        k(   50) = (   0.2083333   0.2083333   0.0000000), wk =   0.0069444
        k(   51) = (   0.2083333   0.2500000   0.0000000), wk =   0.0069444
        k(   52) = (   0.2083333   0.2916667   0.0000000), wk =   0.0069444
        k(   53) = (   0.2083333   0.3333333   0.0000000), wk =   0.0069444
        k(   54) = (   0.2083333   0.3750000   0.0000000), wk =   0.0069444
        k(   55) = (   0.2500000   0.2500000   0.0000000), wk =   0.0069444
        k(   56) = (   0.2500000   0.2916667   0.0000000), wk =   0.0069444
        k(   57) = (   0.2500000   0.3333333   0.0000000), wk =   0.0069444
        k(   58) = (   0.2500000   0.3750000   0.0000000), wk =   0.0034722
        k(   59) = (   0.2916667   0.2916667   0.0000000), wk =   0.0069444
        k(   60) = (   0.2916667   0.3333333   0.0000000), wk =   0.0069444
[...]
        k(  300) = (  -0.2916667   0.5000000   0.0000000), wk =   0.0069444
        k(  301) = (   0.5000000  -0.2083333   0.0000000), wk =   0.0069444
        k(  302) = (  -0.3333333   0.5416667   0.0000000), wk =   0.0069444
        k(  303) = (   0.5416667  -0.2083333   0.0000000), wk =   0.0069444
        k(  304) = (  -0.3750000   0.5833333   0.0000000), wk =   0.0069444
        k(  305) = (   0.5833333  -0.2083333   0.0000000), wk =   0.0069444
        k(  306) = (   0.5000000  -0.2500000   0.0000000), wk =   0.0034722
        k(  307) = (  -0.2916667   0.5416667   0.0000000), wk =   0.0069444
        k(  308) = (   0.5416667  -0.2500000   0.0000000), wk =   0.0069444
        k(  309) = (  -0.3333333   0.5833333   0.0000000), wk =   0.0069444
        k(  310) = (   0.5833333  -0.2500000   0.0000000), wk =   0.0069444
        k(  311) = (  -0.3750000   0.6250000   0.0000000), wk =   0.0069444
        k(  312) = (   0.5833333  -0.2916667   0.0000000), wk =   0.0034722
        k(  313) = (  -0.3333333   0.6250000   0.0000000), wk =   0.0069444
        k(  314) = (   0.6250000  -0.2916667   0.0000000), wk =   0.0069444

     Largest allocated arrays     est. size (Mb)     dimensions
     Largest temporary arrays     est. size (Mb)     dimensions

     Initial potential from superposition of free atoms

     starting charge   15.99979, renormalised to   16.00000

     negative rho (up, down):  8.054E-06 2.685E-06
     Starting wfc are   16 randomized atomic wfcs

     Self-consistent Calculation

     iteration #  1     ecut=    40.00 Ry     beta=0.30
     Davidson diagonalization with overlap
     ethr =  1.00E-02,  avg # of iterations =  6.3

     negative rho (up, down):  4.899E-06 1.512E-06

     Magnetic moment per site:
     atom:    1    charge:    1.6475    magn:    0.5748    constr:    0.0000
     atom:    2    charge:    1.6478    magn:    0.5750    constr:    0.0000
     atom:    3    charge:    1.6467    magn:    0.5745    constr:    0.0000
     atom:    4    charge:    1.6470    magn:    0.5747    constr:    0.0000

 ------ SPIN UP ------------

          k = 0.0000 0.0000 0.0000     band energies (ev):

   -25.4492 -25.3109 -12.7609 -11.8742  -9.8743  -9.8725  -9.8653  -9.8634
     2.0883   2.0906   2.1121   2.1143   2.1473   3.1575   5.3925   5.4980

     occupation numbers
     1.0000   1.0000   1.0000   1.0000   1.0000   1.0000   1.0000   1.0000
     0.0000   0.0000   0.0000   0.0000   0.0000   0.0000   0.0000   0.0000

[...]

          k =-0.0417 0.0241 0.0000     band energies (ev):

[...]

 ------ SPIN DOWN ----------

[...]

     the Fermi energy is    -3.4355 ev

!    total energy              =     -45.35732192 Ry
     Harris-Foulkes estimate   =     -45.23207393 Ry
     estimated scf accuracy    <       0.54028166 Ry

     The total energy is the sum of the following terms:

     one-electron contribution =    -553.16457149 Ry
     hartree contribution      =     276.48041149 Ry
     xc contribution           =     -13.92668159 Ry
     ewald contribution        =     240.51192491 Ry
     scf correction            =       4.74159466 Ry
     smearing contrib. (-TS)   =       0.00000009 Ry

     total magnetization       =     0.49 Bohr mag/cell
     absolute magnetization    =     0.54 Bohr mag/cell

[...]

          k =-0.3333 0.5292 0.0000     band energies (ev):

[...]

          k = 0.6250 0.0241 0.0000     band energies (ev):

[...]

     one-electron contribution =    -551.04975090 Ry
     hartree contribution      =     278.99515634 Ry
     xc contribution           =     -14.03498944 Ry
     ewald contribution        =     240.51192491 Ry
     scf correction            =       0.00015650 Ry
     smearing contrib. (-TS)   =      -0.00000000 Ry

[...]

     iteration # 13     ecut=    40.00 Ry     beta=0.30
     Davidson diagonalization with overlap
     ethr =  6.24E-12,  avg # of iterations =  2.3

     negative rho (up, down):  8.183E-07 8.172E-07

     Magnetic moment per site:
     atom:    1    charge:    1.7156    magn:    0.0026    constr:    0.0000
     atom:    2    charge:    1.7143    magn:   -0.0012    constr:    0.0000
     atom:    3    charge:    1.7147    magn:    0.0026    constr:    0.0000
     atom:    4    charge:    1.7134    magn:   -0.0013    constr:    0.0000

     End of self-consistent calculation

 ------ SPIN UP ------------

          k = 0.0000 0.0000 0.0000 (  3053 PWs)   bands (ev):

[...]

          k =-0.0417 0.0241 0.0000 (  3069 PWs)   bands (ev):

[...]

 ------ SPIN DOWN ----------

[...]

          k =-0.3333 0.5292 0.0000 (  3000 PWs)   bands (ev):

[...]

          k = 0.6250 0.0241 0.0000 (  3000 PWs)   bands (ev):

   -13.6901 -13.5893 -12.7221 -12.6620 -10.8103 -10.7655  -1.4730  -0.9553
     0.0048   0.3506  10.1313  10.2381  11.7011  12.1707  12.4271  12.8049

     occupation numbers
     1.0000   1.0000   1.0000   1.0000   1.0000   1.0000   1.0000   1.0000
     0.0000   0.0000   0.0000   0.0000   0.0000   0.0000   0.0000   0.0000

     the Fermi energy is    -0.5192 ev

!    total energy              =     -45.57750261 Ry
     Harris-Foulkes estimate   =     -45.57750260 Ry
     estimated scf accuracy    <          3.2E-11 Ry

     The total energy is the sum of the following terms:

     one-electron contribution =    -551.04961986 Ry
     hartree contribution      =     278.99518533 Ry
     xc contribution           =     -14.03499298 Ry
     ewald contribution        =     240.51192491 Ry
     smearing contrib. (-TS)   =      -0.00000000 Ry

     total magnetization       =     0.01 Bohr mag/cell
     absolute magnetization    =     0.02 Bohr mag/cell

     convergence has been achieved in  13 iterations

     Forces acting on atoms (Ry/au):

     atom    1 type  1   force =     0.00000000   -0.00010961   -0.00387767
     atom    2 type  1   force =     0.00000000    0.00011245   -0.00295306
     atom    3 type  1   force =     0.00000000    0.00010864    0.00387785
     atom    4 type  1   force =     0.00000000   -0.00011149    0.00295288
     The non-local contrib.  to forces
     atom    1 type  1   force =     0.00000000   -0.00003817   -0.00224262
     atom    2 type  1   force =     0.00000000    0.00003802   -0.00117018
     atom    3 type  1   force =     0.00000000    0.00003415    0.00222298
     atom    4 type  1   force =     0.00000000   -0.00004010    0.00115010
     The ionic contribution  to forces
     atom    1 type  1   force =    -0.00000000   -0.00037385  -14.45429315
     atom    2 type  1   force =     0.00000000    0.00037309  -14.46150519
     atom    3 type  1   force =     0.00000000    0.00037385   14.45429315
     atom    4 type  1   force =     0.00000000   -0.00037309   14.46150519
     The local contribution  to forces
     atom    1 type  1   force =     0.00000000    0.00030095   14.45264957
     atom    2 type  1   force =    -0.00000000   -0.00030018   14.45971380
     atom    3 type  1   force =    -0.00000000   -0.00030084  -14.45265114
     atom    4 type  1   force =     0.00000000    0.00030024  -14.45971526
     The core correction contribution to forces
     atom    1 type  1   force =     0.00000000    0.00000000    0.00000000
     atom    2 type  1   force =     0.00000000    0.00000000    0.00000000
     atom    3 type  1   force =     0.00000000    0.00000000    0.00000000
     atom    4 type  1   force =     0.00000000    0.00000000    0.00000000
     The Hubbard contrib.    to forces
     atom    1 type  1   force =     0.00000000    0.00000000    0.00000000
     atom    2 type  1   force =     0.00000000    0.00000000    0.00000000
     atom    3 type  1   force =     0.00000000    0.00000000    0.00000000
     atom    4 type  1   force =     0.00000000    0.00000000    0.00000000
     The SCF correction term to forces
     atom    1 type  1   force =    -0.00000000   -0.00000003   -0.00000169
     atom    2 type  1   force =    -0.00000000    0.00000004   -0.00000172
     atom    3 type  1   force =     0.00000000   -0.00000000    0.00000263
     atom    4 type  1   force =     0.00000000   -0.00000002    0.00000261

     Total force =     0.006897     Total SCF correction =     0.000004

     entering subroutine stress ...

          total   stress  (Ry/bohr**3)                   (kbar)     P=   -4.08
  -0.00006795   0.00000000   0.00000000        -10.00      0.00      0.00
   0.00000000  -0.00006771   0.00000000          0.00     -9.96      0.00
   0.00000000   0.00000000   0.00005250          0.00      0.00      7.72

     kinetic stress (kbar)   3525.79      0.00      0.00
                                0.00   3525.68      0.00
                                0.00      0.00   4090.38

     local   stress (kbar)-117710.76      0.00     -0.00
                                0.00-117711.44     -0.00
                               -0.00     -0.00 120037.34

     nonloc. stress (kbar)   -152.38      0.00      0.00
                                0.00   -152.37     -0.00
                                0.00     -0.00   -151.61

     hartree stress (kbar)  57332.37     -0.00      0.00
                               -0.00  57332.46      0.00
                                0.00      0.00 -56989.79

     exc-cor stress (kbar)   -891.70      0.00      0.00
                                0.00   -891.70      0.00
                                0.00      0.00   -924.12

     corecor stress (kbar)      0.00      0.00      0.00
                                0.00      0.00      0.00
                                0.00      0.00      0.00

     ewald   stress (kbar)  57886.69      0.00      0.00
                                0.00  57887.41      0.00
                                0.00      0.00 -66054.47

     hubbard stress (kbar)      0.00      0.00      0.00
                                0.00      0.00      0.00
                                0.00      0.00      0.00

     london  stress (kbar)      0.00      0.00      0.00
                                0.00      0.00      0.00
                                0.00      0.00      0.00

     XDM     stress (kbar)      0.00      0.00      0.00
                                0.00      0.00      0.00
                                0.00      0.00      0.00

     dft-nl  stress (kbar)      0.00      0.00      0.00
                                0.00      0.00      0.00
                                0.00      0.00      0.00

     Writing output data file gra.dos1.save

     General routines

     Parallel routines

   This run was terminated on:  19:58:19  30Apr2020

   JOB DONE.