     Program PWSCF v.5.1 starts on  4Apr2020 at 22:25:20

     Current dimensions of program PWSCF are:
     Max number of different atomic species (ntypx) = 10
     Max number of k-points (npk) =  40000
     Max angular momentum in pseudopotentials (lmaxx) =  3

     IMPORTANT: XC functional enforced from input :
     Exchange-correlation      = PBE ( 1  4  3  4 0)
     Any further DFT definition will be discarded
     Please, verify this is what you really want

               file C.pbe-rrkjus.UPF: wavefunction(s)  2S 2P renormalized

     Subspace diagonalization in iterative solution of the eigenvalue problem:
     a serial algorithm will be used

     Title:
     graphene

     bravais-lattice index     =           12
     lattice parameter (alat)  =       4.6627  a.u.
     unit-cell volume          =     711.6007 (a.u.)^3
     number of atoms/cell      =            4
     number of atomic types    =            1
     number of electrons       =        16.00
     number of Kohn-Sham states=           12
     kinetic-energy cutoff     =      40.0000  Ry
     charge density cutoff     =     400.0000  Ry
     convergence threshold     =      1.0E-10
     mixing beta               =       0.3000
     number of iterations used =            8  plain     mixing
     Exchange-correlation      = PBE ( 1  4  3  4 0)

     celldm(1)=   4.662710  celldm(2)=   1.000000  celldm(3)=   8.105698
     celldm(4)=  -0.500000  celldm(5)=   0.000000  celldm(6)=   0.000000

     crystal axes: (cart. coord. in units of alat)
               a(1) = (   1.000000   0.000000   0.000000 )
               a(2) = (  -0.500000   0.866025   0.000000 )
               a(3) = (   0.000000   0.000000   8.105698 )

     reciprocal axes: (cart. coord. in units 2 pi/alat)
               b(1) = (  1.000000  0.577350 -0.000000 )
               b(2) = (  0.000000  1.154701  0.000000 )
               b(3) = (  0.000000 -0.000000  0.123370 )

     PseudoPot. # 1 for C  read from file:
     ../pseudo/C.pbe-rrkjus.UPF
     MD5 check sum: 00fb224312de0c5b6853bd333518df6f
     Pseudo is Ultrasoft, Zval =  4.0
     Generated by new atomic code, or converted to UPF format
     Using radial grid of  627 points,  4 beta functions with:
                l(1) =   0
                l(2) =   0
                l(3) =   1
                l(4) =   1
     Q(r) pseudized with 0 coefficients

     atomic species   valence    mass     pseudopotential
        C              4.00    12.01100     C ( 1.00)

      2 Sym. Ops. (no inversion) found
          (note:  2 additional sym.ops. were found but ignored
           their fractional translations are incommensurate with FFT grid)

                                    s                        frac. trans.

      isym =  1     identity

 cryst.   s( 1) = (     1          0          0      )
                  (     0          1          0      )
                  (     0          0          1      )

 cart.    s( 1) = (  1.0000000  0.0000000  0.0000000 )
                  (  0.0000000  1.0000000  0.0000000 )
                  (  0.0000000  0.0000000  1.0000000 )

      isym =  2     inv. 180 deg rotation - cart. axis [1,0,0]

 cryst.   s( 2) = (    -1          0          0      )
                  (     1          1          0      )
                  (     0          0          1      )

 cart.    s( 2) = ( -1.0000000  0.0000000  0.0000000 )
                  (  0.0000000  1.0000000  0.0000000 )
                  (  0.0000000  0.0000000  1.0000000 )

     point group C_s (m)
     there are  2 classes
     the character table:

       E     s
A'     1.00  1.00
A''    1.00 -1.00

     the symmetry operations in each class:
     E        1
     s        2

   Cartesian axes

     site n.     atom                  positions (alat units)
         1           C   tau(   1) = (   0.0000000   0.0000000   2.0264246  )
         2           C   tau(   2) = (   0.0000000   0.5773284   2.0264246  )
         3           C   tau(   3) = (   0.0000000   1.1546567   3.3354949  )
         4           C   tau(   4) = (   0.0000000   0.5773284   3.3354949  )

   Crystallographic axes

     site n.     atom                  positions (cryst. coord.)
         1           C   tau(   1) = (  0.0000000  0.0000000  0.2500000  )
         2           C   tau(   2) = (  0.3333207  0.6666414  0.2500000  )
         3           C   tau(   3) = (  0.6666414  1.3332827  0.4115000  )
         4           C   tau(   4) = (  0.3333207  0.6666414  0.4115000  )

     number of k points=    43  Marzari-Vanderbilt smearing, width (Ry)=  0.0001
                       cart. coord. in units 2pi/alat
        k(    1) = (   0.0000000   0.0000000   0.0000000), wk =   0.0138889
        k(    2) = (   0.0000000   0.0962250   0.0000000), wk =   0.0277778
        k(    3) = (   0.0000000   0.1924501   0.0000000), wk =   0.0277778
        k(    4) = (   0.0000000   0.2886751   0.0000000), wk =   0.0277778
        k(    5) = (   0.0000000   0.3849002   0.0000000), wk =   0.0277778
        k(    6) = (   0.0000000   0.4811252   0.0000000), wk =   0.0277778
        k(    7) = (   0.0000000  -0.5773503   0.0000000), wk =   0.0138889
        k(    8) = (   0.0833333   0.1443376   0.0000000), wk =   0.0555556
        k(    9) = (   0.0833333   0.2405626   0.0000000), wk =   0.0555556
        k(   10) = (   0.0833333   0.3367877   0.0000000), wk =   0.0555556
        k(   11) = (   0.0833333   0.4330127   0.0000000), wk =   0.0555556
        k(   12) = (   0.0833333   0.5292377   0.0000000), wk =   0.0555556
        k(   13) = (   0.1666667   0.2886751   0.0000000), wk =   0.0555556
        k(   14) = (   0.1666667   0.3849002   0.0000000), wk =   0.0555556
        k(   15) = (   0.1666667   0.4811252   0.0000000), wk =   0.0555556
        k(   16) = (   0.1666667   0.5773503   0.0000000), wk =   0.0277778
        k(   17) = (   0.2500000   0.4330127   0.0000000), wk =   0.0555556
        k(   18) = (   0.2500000   0.5292377   0.0000000), wk =   0.0555556
        k(   19) = (   0.3333333   0.5773503   0.0000000), wk =   0.0277778
        k(   20) = (  -0.0833333   0.0481125   0.0000000), wk =   0.0555556
        k(   21) = (  -0.1666667   0.0962250   0.0000000), wk =   0.0555556
        k(   22) = (  -0.2500000   0.1443376   0.0000000), wk =   0.0555556
        k(   23) = (  -0.3333333   0.1924501   0.0000000), wk =   0.0555556
        k(   24) = (  -0.4166667   0.2405626   0.0000000), wk =   0.0555556
        k(   25) = (   0.5000000  -0.2886751   0.0000000), wk =   0.0277778
        k(   26) = (   0.1666667  -0.0000000   0.0000000), wk =   0.0277778
        k(   27) = (  -0.1666667   0.1924501   0.0000000), wk =   0.0555556
        k(   28) = (   0.2500000   0.0481125   0.0000000), wk =   0.0555556
        k(   29) = (  -0.2500000   0.2405626   0.0000000), wk =   0.0555556
        k(   30) = (   0.3333333   0.0962250   0.0000000), wk =   0.0555556
        k(   31) = (  -0.3333333   0.2886751   0.0000000), wk =   0.0555556
        k(   32) = (   0.4166667   0.1443376   0.0000000), wk =   0.0555556
        k(   33) = (  -0.4166667   0.3367877   0.0000000), wk =   0.0555556
        k(   34) = (   0.5000000   0.1924501   0.0000000), wk =   0.0555556
        k(   35) = (   0.3333333  -0.0000000   0.0000000), wk =   0.0277778
        k(   36) = (  -0.2500000   0.3367877   0.0000000), wk =   0.0555556
        k(   37) = (   0.4166667   0.0481125   0.0000000), wk =   0.0555556
        k(   38) = (  -0.3333333   0.3849002   0.0000000), wk =   0.0555556
        k(   39) = (   0.5000000   0.0962250   0.0000000), wk =   0.0555556
        k(   40) = (  -0.4166667   0.4330127   0.0000000), wk =   0.0555556
        k(   41) = (   0.5000000   0.0000000   0.0000000), wk =   0.0277778
        k(   42) = (  -0.3333333   0.4811252   0.0000000), wk =   0.0555556
        k(   43) = (   0.5833333   0.0481125   0.0000000), wk =   0.0555556

                       cryst. coord.
        k(    1) = (   0.0000000   0.0000000   0.0000000), wk =   0.0138889
        k(    2) = (   0.0000000   0.0833333   0.0000000), wk =   0.0277778
        k(    3) = (   0.0000000   0.1666667   0.0000000), wk =   0.0277778
        k(    4) = (   0.0000000   0.2500000   0.0000000), wk =   0.0277778
        k(    5) = (   0.0000000   0.3333333   0.0000000), wk =   0.0277778
        k(    6) = (   0.0000000   0.4166667   0.0000000), wk =   0.0277778
        k(    7) = (   0.0000000  -0.5000000   0.0000000), wk =   0.0138889
        k(    8) = (   0.0833333   0.0833333   0.0000000), wk =   0.0555556
        k(    9) = (   0.0833333   0.1666667   0.0000000), wk =   0.0555556
        k(   10) = (   0.0833333   0.2500000   0.0000000), wk =   0.0555556
        k(   11) = (   0.0833333   0.3333333   0.0000000), wk =   0.0555556
        k(   12) = (   0.0833333   0.4166667   0.0000000), wk =   0.0555556
        k(   13) = (   0.1666667   0.1666667   0.0000000), wk =   0.0555556
        k(   14) = (   0.1666667   0.2500000   0.0000000), wk =   0.0555556
        k(   15) = (   0.1666667   0.3333333   0.0000000), wk =   0.0555556
        k(   16) = (   0.1666667   0.4166667   0.0000000), wk =   0.0277778
        k(   17) = (   0.2500000   0.2500000   0.0000000), wk =   0.0555556
        k(   18) = (   0.2500000   0.3333333   0.0000000), wk =   0.0555556
        k(   19) = (   0.3333333   0.3333333   0.0000000), wk =   0.0277778
        k(   20) = (  -0.0833333   0.0833333   0.0000000), wk =   0.0555556
        k(   21) = (  -0.1666667   0.1666667   0.0000000), wk =   0.0555556
        k(   22) = (  -0.2500000   0.2500000   0.0000000), wk =   0.0555556
        k(   23) = (  -0.3333333   0.3333333   0.0000000), wk =   0.0555556
        k(   24) = (  -0.4166667   0.4166667   0.0000000), wk =   0.0555556
        k(   25) = (   0.5000000  -0.5000000   0.0000000), wk =   0.0277778
        k(   26) = (   0.1666667  -0.0833333   0.0000000), wk =   0.0277778
        k(   27) = (  -0.1666667   0.2500000   0.0000000), wk =   0.0555556
        k(   28) = (   0.2500000  -0.0833333   0.0000000), wk =   0.0555556
        k(   29) = (  -0.2500000   0.3333333   0.0000000), wk =   0.0555556
        k(   30) = (   0.3333333  -0.0833333   0.0000000), wk =   0.0555556
        k(   31) = (  -0.3333333   0.4166667   0.0000000), wk =   0.0555556
        k(   32) = (   0.4166667  -0.0833333   0.0000000), wk =   0.0555556
        k(   33) = (  -0.4166667   0.5000000   0.0000000), wk =   0.0555556
        k(   34) = (   0.5000000  -0.0833333   0.0000000), wk =   0.0555556
        k(   35) = (   0.3333333  -0.1666667   0.0000000), wk =   0.0277778
        k(   36) = (  -0.2500000   0.4166667   0.0000000), wk =   0.0555556
        k(   37) = (   0.4166667  -0.1666667   0.0000000), wk =   0.0555556
        k(   38) = (  -0.3333333   0.5000000   0.0000000), wk =   0.0555556
        k(   39) = (   0.5000000  -0.1666667   0.0000000), wk =   0.0555556
        k(   40) = (  -0.4166667   0.5833333   0.0000000), wk =   0.0555556
        k(   41) = (   0.5000000  -0.2500000   0.0000000), wk =   0.0277778
        k(   42) = (  -0.3333333   0.5833333   0.0000000), wk =   0.0555556
        k(   43) = (   0.5833333  -0.2500000   0.0000000), wk =   0.0555556

     Largest allocated arrays     est. size (Mb)     dimensions
     Largest temporary arrays     est. size (Mb)     dimensions

     Initial potential from superposition of free atoms

     starting charge   15.99979, renormalised to   16.00000

     negative rho (up, down):  1.074E-05 0.000E+00
     Starting wfc are   16 randomized atomic wfcs

     Self-consistent Calculation

     iteration #  1     ecut=    40.00 Ry     beta=0.30
     Davidson diagonalization with overlap
     ethr =  1.00E-02,  avg # of iterations =  2.8

     negative rho (up, down):  6.564E-06 0.000E+00

          k = 0.0000 0.0000 0.0000     band energies (ev):

   -23.9047 -23.7548 -11.4247 -10.4702  -8.1719  -8.1700  -8.1621  -8.1602
     3.6778   3.6801   3.7037   3.7059

     occupation numbers
     1.0000   1.0000   1.0000   1.0000   1.0000   1.0000   1.0000   1.0000
     0.0000   0.0000   0.0000   0.0000

[...]

          k =-0.0833 0.0481 0.0000     band energies (ev):

[...]

     the Fermi energy is    -3.6854 ev

!    total energy              =     -45.62012204 Ry
     Harris-Foulkes estimate   =     -45.74965415 Ry
     estimated scf accuracy    <       0.39038173 Ry

     The total energy is the sum of the following terms:

     one-electron contribution =    -553.24757818 Ry
     hartree contribution      =     276.49091595 Ry
     xc contribution           =     -13.66378253 Ry
     ewald contribution        =     240.51192491 Ry
     scf correction            =       4.28839872 Ry
     smearing contrib. (-TS)   =      -0.00000089 Ry

[...]

          k =-0.3333 0.4811 0.0000     band energies (ev):

[...]

          k = 0.5833 0.0481 0.0000     band energies (ev):

[...]

     one-electron contribution =    -551.04981147 Ry
     hartree contribution      =     278.99571927 Ry
     xc contribution           =     -14.03485042 Ry
     ewald contribution        =     240.51192491 Ry
     scf correction            =      -0.00000059 Ry
     smearing contrib. (-TS)   =      -0.00000091 Ry

     iteration # 41     ecut=    40.00 Ry     beta=0.30
     Davidson diagonalization with overlap
     ethr =  1.73E-12,  avg # of iterations =  1.0

     negative rho (up, down):  1.641E-06 0.000E+00

     End of self-consistent calculation

          k = 0.0000 0.0000 0.0000 (  3053 PWs)   bands (ev):

[...]

          k =-0.0833 0.0481 0.0000 (  3052 PWs)   bands (ev):

[...]

          k =-0.3333 0.4811 0.0000 (  3013 PWs)   bands (ev):

[...]

          k = 0.5833 0.0481 0.0000 (  3013 PWs)   bands (ev):

   -14.3514 -14.2282 -12.4763 -12.3927 -10.1910 -10.1252  -2.1878  -1.5596
     0.6239   0.9637  10.2234  10.5124

     occupation numbers
     1.0000   1.0000   1.0000   1.0000   1.0000   1.0000   1.0000   1.0000
     0.0000   0.0000   0.0000   0.0000

     the Fermi energy is    -0.5214 ev

!    total energy              =     -45.57701921 Ry
     Harris-Foulkes estimate   =     -45.57701921 Ry
     estimated scf accuracy    <          2.1E-12 Ry

     The total energy is the sum of the following terms:

     one-electron contribution =    -551.04981155 Ry
     hartree contribution      =     278.99571862 Ry
     xc contribution           =     -14.03485027 Ry
     ewald contribution        =     240.51192491 Ry
     smearing contrib. (-TS)   =      -0.00000091 Ry

     convergence has been achieved in  41 iterations

     Forces acting on atoms (Ry/au):

     atom    1 type  1   force =     0.00000000   -0.00008762   -0.00396022
     atom    2 type  1   force =     0.00000000    0.00010873   -0.00258093
     atom    3 type  1   force =     0.00000000    0.00008667    0.00396056
     atom    4 type  1   force =     0.00000000   -0.00010778    0.00258060
     The non-local contrib.  to forces
     atom    1 type  1   force =     0.00000000   -0.00003185   -0.00236446
     atom    2 type  1   force =     0.00000000    0.00003818   -0.00082237
     atom    3 type  1   force =     0.00000000    0.00002785    0.00234470
     atom    4 type  1   force =     0.00000000   -0.00004030    0.00080188
     The ionic contribution  to forces
     atom    1 type  1   force =    -0.00000000   -0.00037385  -14.45429315
     atom    2 type  1   force =     0.00000000    0.00037309  -14.46150519
     atom    3 type  1   force =     0.00000000    0.00037385   14.45429315
     atom    4 type  1   force =     0.00000000   -0.00037309   14.46150519
     The local contribution  to forces
     atom    1 type  1   force =     0.00000000    0.00031657   14.45268557
     atom    2 type  1   force =    -0.00000000   -0.00030403   14.45973479
     atom    3 type  1   force =    -0.00000000   -0.00031650  -14.45268913
     atom    4 type  1   force =     0.00000000    0.00030412  -14.45973832
     The core correction contribution to forces
     atom    1 type  1   force =     0.00000000    0.00000000    0.00000000
     atom    2 type  1   force =     0.00000000    0.00000000    0.00000000
     atom    3 type  1   force =     0.00000000    0.00000000    0.00000000
     atom    4 type  1   force =     0.00000000    0.00000000    0.00000000
     The Hubbard contrib.    to forces
     atom    1 type  1   force =     0.00000000    0.00000000    0.00000000
     atom    2 type  1   force =     0.00000000    0.00000000    0.00000000
     atom    3 type  1   force =     0.00000000    0.00000000    0.00000000
     atom    4 type  1   force =     0.00000000    0.00000000    0.00000000
     The SCF correction term to forces
     atom    1 type  1   force =     0.00000000    0.00000001    0.00000168
     atom    2 type  1   force =    -0.00000000   -0.00000000    0.00000169
     atom    3 type  1   force =    -0.00000000   -0.00000001    0.00000169
     atom    4 type  1   force =     0.00000000    0.00000000    0.00000170

     Total force =     0.006688     Total SCF correction =     0.000003

     entering subroutine stress ...

          total   stress  (Ry/bohr**3)                   (kbar)     P=   -4.04
  -0.00006636   0.00000000   0.00000000         -9.76      0.00      0.00
   0.00000000  -0.00006600  -0.00000016          0.00     -9.71     -0.02
   0.00000000  -0.00000016   0.00005003          0.00     -0.02      7.36

     kinetic stress (kbar)   3525.96      0.00      0.00
                                0.00   3525.87     -0.03
                                0.00     -0.03   4090.03

     local   stress (kbar)-117710.83      0.00      0.00
                                0.00-117711.52     -0.00
                                0.00     -0.00 120037.41

     nonloc. stress (kbar)   -152.36      0.00      0.00
                                0.00   -152.35      0.00
                                0.00      0.00   -151.60

     hartree stress (kbar)  57332.48     -0.00     -0.00
                               -0.00  57332.58      0.00
                               -0.00      0.00 -56989.90

     exc-cor stress (kbar)   -891.70      0.00     -0.00
                                0.00   -891.69      0.00
                               -0.00      0.00   -924.11

     corecor stress (kbar)      0.00      0.00      0.00
                                0.00      0.00      0.00
                                0.00      0.00      0.00

     ewald   stress (kbar)  57886.69      0.00      0.00
                                0.00  57887.41      0.00
                                0.00      0.00 -66054.47

     hubbard stress (kbar)      0.00      0.00      0.00
                                0.00      0.00      0.00
                                0.00      0.00      0.00

     london  stress (kbar)      0.00      0.00      0.00
                                0.00      0.00      0.00
                                0.00      0.00      0.00

     XDM     stress (kbar)      0.00      0.00      0.00
                                0.00      0.00      0.00
                                0.00      0.00      0.00

     dft-nl  stress (kbar)      0.00      0.00      0.00
                                0.00      0.00      0.00
                                0.00      0.00      0.00

     Writing output data file graphene.save

     General routines

     Parallel routines

   This run was terminated on:  22:29: 5   4Apr2020

   JOB DONE.