     Program PWSCF v.5.1 starts on 30Apr2020 at 17:22:57

     Current dimensions of program PWSCF are:
     Max number of different atomic species (ntypx) = 10
     Max number of k-points (npk) =  40000
     Max angular momentum in pseudopotentials (lmaxx) =  3

     IMPORTANT: XC functional enforced from input :
     Exchange-correlation      = PBE ( 1  4  3  4 0)
     Any further DFT definition will be discarded
     Please, verify this is what you really want

               file C.pbe-rrkjus.UPF: wavefunction(s)  2S 2P renormalized

     Subspace diagonalization in iterative solution of the eigenvalue problem:
     a serial algorithm will be used

     Generating pointlists ...
     new r_m :   0.2381 (alat units)  1.1104 (a.u.) for type    1

     Title:
     graphene

     bravais-lattice index     =           12
     lattice parameter (alat)  =       4.6627  a.u.
     unit-cell volume          =     711.6007 (a.u.)^3
     number of atoms/cell      =            4
     number of atomic types    =            1
     number of electrons       =        16.00
     number of Kohn-Sham states=           16
     kinetic-energy cutoff     =      40.0000  Ry
     charge density cutoff     =     400.0000  Ry
     convergence threshold     =      1.0E-10
     mixing beta               =       0.3000
     number of iterations used =            8  plain     mixing
     Exchange-correlation      = PBE ( 1  4  3  4 0)

     celldm(1)=   4.662710  celldm(2)=   1.000000  celldm(3)=   8.105698
     celldm(4)=  -0.500000  celldm(5)=   0.000000  celldm(6)=   0.000000

     crystal axes: (cart. coord. in units of alat)
               a(1) = (   1.000000   0.000000   0.000000 )
               a(2) = (  -0.500000   0.866025   0.000000 )
               a(3) = (   0.000000   0.000000   8.105698 )

     reciprocal axes: (cart. coord. in units 2 pi/alat)
               b(1) = (  1.000000  0.577350 -0.000000 )
               b(2) = (  0.000000  1.154701  0.000000 )
               b(3) = (  0.000000 -0.000000  0.123370 )

     PseudoPot. # 1 for C  read from file:
     ../pseudo/C.pbe-rrkjus.UPF
     MD5 check sum: 00fb224312de0c5b6853bd333518df6f
     Pseudo is Ultrasoft, Zval =  4.0
     Generated by new atomic code, or converted to UPF format
     Using radial grid of  627 points,  4 beta functions with:
                l(1) =   0
                l(2) =   0
                l(3) =   1
                l(4) =   1
     Q(r) pseudized with 0 coefficients

     atomic species   valence    mass     pseudopotential
        C              4.00    12.01100     C ( 1.00)

     Starting magnetic structure
     atomic species   magnetization
        C            0.500

      2 Sym. Ops. (no inversion) found
          (note:  6 additional sym.ops. were found but ignored
           their fractional translations are incommensurate with FFT grid)

                                    s                        frac. trans.

      isym =  1     identity

 cryst.   s( 1) = (     1          0          0      )
                  (     0          1          0      )
                  (     0          0          1      )

 cart.    s( 1) = (  1.0000000  0.0000000  0.0000000 )
                  (  0.0000000  1.0000000  0.0000000 )
                  (  0.0000000  0.0000000  1.0000000 )

      isym =  2     inv. 180 deg rotation - cart. axis [1,0,0]

 cryst.   s( 2) = (    -1          0          0      )
                  (     1          1          0      )
                  (     0          0          1      )

 cart.    s( 2) = ( -1.0000000  0.0000000  0.0000000 )
                  (  0.0000000  1.0000000  0.0000000 )
                  (  0.0000000  0.0000000  1.0000000 )

     point group C_s (m)
     there are  2 classes
     the character table:

       E     s
A'     1.00  1.00
A''    1.00 -1.00

     the symmetry operations in each class:
     E        1
     s        2

   Cartesian axes

     site n.     atom                  positions (alat units)
         1           C   tau(   1) = (   0.0000000   0.0000000   2.0264246  )
         2           C   tau(   2) = (   0.0000000   0.5773284   2.0264246  )
         3           C   tau(   3) = (   0.0000000   0.0000000   3.4530275  )
         4           C   tau(   4) = (   0.0000000   0.5773284   3.4530275  )

   Crystallographic axes

     site n.     atom                  positions (cryst. coord.)
         1           C   tau(   1) = (  0.0000000  0.0000000  0.2500000  )
         2           C   tau(   2) = (  0.3333207  0.6666414  0.2500000  )
         3           C   tau(   3) = (  0.0000000  0.0000000  0.4260000  )
         4           C   tau(   4) = (  0.3333207  0.6666414  0.4260000  )

     number of k points=   314  Marzari-Vanderbilt smearing, width (Ry)=  0.0001
                       cart. coord. in units 2pi/alat
        k(    1) = (   0.0000000   0.0000000   0.0000000), wk =   0.0017361
        k(    2) = (   0.0000000   0.0481125   0.0000000), wk =   0.0034722
        k(    3) = (   0.0000000   0.0962250   0.0000000), wk =   0.0034722
        k(    4) = (   0.0000000   0.1443376   0.0000000), wk =   0.0034722
        k(    5) = (   0.0000000   0.1924501   0.0000000), wk =   0.0034722
        k(    6) = (   0.0000000   0.2405626   0.0000000), wk =   0.0034722
        k(    7) = (   0.0000000   0.2886751   0.0000000), wk =   0.0034722
        k(    8) = (   0.0000000   0.3367877   0.0000000), wk =   0.0034722
        k(    9) = (   0.0000000   0.3849002   0.0000000), wk =   0.0034722
        k(   10) = (   0.0000000   0.4330127   0.0000000), wk =   0.0034722
        k(   11) = (   0.0000000   0.4811252   0.0000000), wk =   0.0034722
        k(   12) = (   0.0000000   0.5292377   0.0000000), wk =   0.0034722
        k(   13) = (   0.0000000  -0.5773503   0.0000000), wk =   0.0017361
        k(   14) = (   0.0416667   0.0721688   0.0000000), wk =   0.0069444
        k(   15) = (   0.0416667   0.1202813   0.0000000), wk =   0.0069444
        k(   16) = (   0.0416667   0.1683938   0.0000000), wk =   0.0069444
        k(   17) = (   0.0416667   0.2165064   0.0000000), wk =   0.0069444
        k(   18) = (   0.0416667   0.2646189   0.0000000), wk =   0.0069444
        k(   19) = (   0.0416667   0.3127314   0.0000000), wk =   0.0069444
        k(   20) = (   0.0416667   0.3608439   0.0000000), wk =   0.0069444
        k(   21) = (   0.0416667   0.4089564   0.0000000), wk =   0.0069444
        k(   22) = (   0.0416667   0.4570690   0.0000000), wk =   0.0069444
        k(   23) = (   0.0416667   0.5051815   0.0000000), wk =   0.0069444
        k(   24) = (   0.0416667   0.5532940   0.0000000), wk =   0.0069444
        k(   25) = (   0.0833333   0.1443376   0.0000000), wk =   0.0069444
        k(   26) = (   0.0833333   0.1924501   0.0000000), wk =   0.0069444
        k(   27) = (   0.0833333   0.2405626   0.0000000), wk =   0.0069444
        k(   28) = (   0.0833333   0.2886751   0.0000000), wk =   0.0069444
        k(   29) = (   0.0833333   0.3367877   0.0000000), wk =   0.0069444
        k(   30) = (   0.0833333   0.3849002   0.0000000), wk =   0.0069444
        k(   31) = (   0.0833333   0.4330127   0.0000000), wk =   0.0069444
        k(   32) = (   0.0833333   0.4811252   0.0000000), wk =   0.0069444
        k(   33) = (   0.0833333   0.5292377   0.0000000), wk =   0.0069444
        k(   34) = (   0.0833333   0.5773503   0.0000000), wk =   0.0034722
        k(   35) = (   0.1250000   0.2165064   0.0000000), wk =   0.0069444
        k(   36) = (   0.1250000   0.2646189   0.0000000), wk =   0.0069444
        k(   37) = (   0.1250000   0.3127314   0.0000000), wk =   0.0069444
        k(   38) = (   0.1250000   0.3608439   0.0000000), wk =   0.0069444
        k(   39) = (   0.1250000   0.4089564   0.0000000), wk =   0.0069444
        k(   40) = (   0.1250000   0.4570690   0.0000000), wk =   0.0069444
        k(   41) = (   0.1250000   0.5051815   0.0000000), wk =   0.0069444
        k(   42) = (   0.1250000   0.5532940   0.0000000), wk =   0.0069444
        k(   43) = (   0.1666667   0.2886751   0.0000000), wk =   0.0069444
        k(   44) = (   0.1666667   0.3367877   0.0000000), wk =   0.0069444
        k(   45) = (   0.1666667   0.3849002   0.0000000), wk =   0.0069444
        k(   46) = (   0.1666667   0.4330127   0.0000000), wk =   0.0069444
        k(   47) = (   0.1666667   0.4811252   0.0000000), wk =   0.0069444
        k(   48) = (   0.1666667   0.5292377   0.0000000), wk =   0.0069444
        k(   49) = (   0.1666667   0.5773503   0.0000000), wk =   0.0034722
        k(   50) = (   0.2083333   0.3608439   0.0000000), wk =   0.0069444
        k(   51) = (   0.2083333   0.4089564   0.0000000), wk =   0.0069444
        k(   52) = (   0.2083333   0.4570690   0.0000000), wk =   0.0069444
        k(   53) = (   0.2083333   0.5051815   0.0000000), wk =   0.0069444
        k(   54) = (   0.2083333   0.5532940   0.0000000), wk =   0.0069444
        k(   55) = (   0.2500000   0.4330127   0.0000000), wk =   0.0069444
        k(   56) = (   0.2500000   0.4811252   0.0000000), wk =   0.0069444
        k(   57) = (   0.2500000   0.5292377   0.0000000), wk =   0.0069444
        k(   58) = (   0.2500000   0.5773503   0.0000000), wk =   0.0034722
        k(   59) = (   0.2916667   0.5051815   0.0000000), wk =   0.0069444
        k(   60) = (   0.2916667   0.5532940   0.0000000), wk =   0.0069444
[...]
        k(  300) = (  -0.2916667   0.4089564   0.0000000), wk =   0.0069444
        k(  301) = (   0.5000000   0.0481125   0.0000000), wk =   0.0069444
        k(  302) = (  -0.3333333   0.4330127   0.0000000), wk =   0.0069444
        k(  303) = (   0.5416667   0.0721688   0.0000000), wk =   0.0069444
        k(  304) = (  -0.3750000   0.4570690   0.0000000), wk =   0.0069444
        k(  305) = (   0.5833333   0.0962250   0.0000000), wk =   0.0069444
        k(  306) = (   0.5000000   0.0000000   0.0000000), wk =   0.0034722
        k(  307) = (  -0.2916667   0.4570690   0.0000000), wk =   0.0069444
        k(  308) = (   0.5416667   0.0240563   0.0000000), wk =   0.0069444
        k(  309) = (  -0.3333333   0.4811252   0.0000000), wk =   0.0069444
        k(  310) = (   0.5833333   0.0481125   0.0000000), wk =   0.0069444
        k(  311) = (  -0.3750000   0.5051815   0.0000000), wk =   0.0069444
        k(  312) = (   0.5833333   0.0000000   0.0000000), wk =   0.0034722
        k(  313) = (  -0.3333333   0.5292377   0.0000000), wk =   0.0069444
        k(  314) = (   0.6250000   0.0240563   0.0000000), wk =   0.0069444

                       cryst. coord.
        k(    1) = (   0.0000000   0.0000000   0.0000000), wk =   0.0017361
        k(    2) = (   0.0000000   0.0416667   0.0000000), wk =   0.0034722
        k(    3) = (   0.0000000   0.0833333   0.0000000), wk =   0.0034722
        k(    4) = (   0.0000000   0.1250000   0.0000000), wk =   0.0034722
        k(    5) = (   0.0000000   0.1666667   0.0000000), wk =   0.0034722
        k(    6) = (   0.0000000   0.2083333   0.0000000), wk =   0.0034722
        k(    7) = (   0.0000000   0.2500000   0.0000000), wk =   0.0034722
        k(    8) = (   0.0000000   0.2916667   0.0000000), wk =   0.0034722
        k(    9) = (   0.0000000   0.3333333   0.0000000), wk =   0.0034722
        k(   10) = (   0.0000000   0.3750000   0.0000000), wk =   0.0034722
        k(   11) = (   0.0000000   0.4166667   0.0000000), wk =   0.0034722
        k(   12) = (   0.0000000   0.4583333   0.0000000), wk =   0.0034722
        k(   13) = (   0.0000000  -0.5000000   0.0000000), wk =   0.0017361
        k(   14) = (   0.0416667   0.0416667   0.0000000), wk =   0.0069444
        k(   15) = (   0.0416667   0.0833333   0.0000000), wk =   0.0069444
        k(   16) = (   0.0416667   0.1250000   0.0000000), wk =   0.0069444
        k(   17) = (   0.0416667   0.1666667   0.0000000), wk =   0.0069444
        k(   18) = (   0.0416667   0.2083333   0.0000000), wk =   0.0069444
        k(   19) = (   0.0416667   0.2500000   0.0000000), wk =   0.0069444
        k(   20) = (   0.0416667   0.2916667   0.0000000), wk =   0.0069444
        k(   21) = (   0.0416667   0.3333333   0.0000000), wk =   0.0069444
        k(   22) = (   0.0416667   0.3750000   0.0000000), wk =   0.0069444
        k(   23) = (   0.0416667   0.4166667   0.0000000), wk =   0.0069444
        k(   24) = (   0.0416667   0.4583333   0.0000000), wk =   0.0069444
        k(   25) = (   0.0833333   0.0833333   0.0000000), wk =   0.0069444
        k(   26) = (   0.0833333   0.1250000   0.0000000), wk =   0.0069444
        k(   27) = (   0.0833333   0.1666667   0.0000000), wk =   0.0069444
        k(   28) = (   0.0833333   0.2083333   0.0000000), wk =   0.0069444
        k(   29) = (   0.0833333   0.2500000   0.0000000), wk =   0.0069444
        k(   30) = (   0.0833333   0.2916667   0.0000000), wk =   0.0069444
        k(   31) = (   0.0833333   0.3333333   0.0000000), wk =   0.0069444
        k(   32) = (   0.0833333   0.3750000   0.0000000), wk =   0.0069444
        k(   33) = (   0.0833333   0.4166667   0.0000000), wk =   0.0069444
        k(   34) = (   0.0833333   0.4583333   0.0000000), wk =   0.0034722
        k(   35) = (   0.1250000   0.1250000   0.0000000), wk =   0.0069444
        k(   36) = (   0.1250000   0.1666667   0.0000000), wk =   0.0069444
        k(   37) = (   0.1250000   0.2083333   0.0000000), wk =   0.0069444
        k(   38) = (   0.1250000   0.2500000   0.0000000), wk =   0.0069444
        k(   39) = (   0.1250000   0.2916667   0.0000000), wk =   0.0069444
        k(   40) = (   0.1250000   0.3333333   0.0000000), wk =   0.0069444
        k(   41) = (   0.1250000   0.3750000   0.0000000), wk =   0.0069444
        k(   42) = (   0.1250000   0.4166667   0.0000000), wk =   0.0069444
        k(   43) = (   0.1666667   0.1666667   0.0000000), wk =   0.0069444
        k(   44) = (   0.1666667   0.2083333   0.0000000), wk =   0.0069444
        k(   45) = (   0.1666667   0.2500000   0.0000000), wk =   0.0069444
        k(   46) = (   0.1666667   0.2916667   0.0000000), wk =   0.0069444
        k(   47) = (   0.1666667   0.3333333   0.0000000), wk =   0.0069444
        k(   48) = (   0.1666667   0.3750000   0.0000000), wk =   0.0069444
        k(   49) = (   0.1666667   0.4166667   0.0000000), wk =   0.0034722
        k(   50) = (   0.2083333   0.2083333   0.0000000), wk =   0.0069444
        k(   51) = (   0.2083333   0.2500000   0.0000000), wk =   0.0069444
        k(   52) = (   0.2083333   0.2916667   0.0000000), wk =   0.0069444
        k(   53) = (   0.2083333   0.3333333   0.0000000), wk =   0.0069444
        k(   54) = (   0.2083333   0.3750000   0.0000000), wk =   0.0069444
        k(   55) = (   0.2500000   0.2500000   0.0000000), wk =   0.0069444
        k(   56) = (   0.2500000   0.2916667   0.0000000), wk =   0.0069444
        k(   57) = (   0.2500000   0.3333333   0.0000000), wk =   0.0069444
        k(   58) = (   0.2500000   0.3750000   0.0000000), wk =   0.0034722
        k(   59) = (   0.2916667   0.2916667   0.0000000), wk =   0.0069444
        k(   60) = (   0.2916667   0.3333333   0.0000000), wk =   0.0069444
[...]
        k(  300) = (  -0.2916667   0.5000000   0.0000000), wk =   0.0069444
        k(  301) = (   0.5000000  -0.2083333   0.0000000), wk =   0.0069444
        k(  302) = (  -0.3333333   0.5416667   0.0000000), wk =   0.0069444
        k(  303) = (   0.5416667  -0.2083333   0.0000000), wk =   0.0069444
        k(  304) = (  -0.3750000   0.5833333   0.0000000), wk =   0.0069444
        k(  305) = (   0.5833333  -0.2083333   0.0000000), wk =   0.0069444
        k(  306) = (   0.5000000  -0.2500000   0.0000000), wk =   0.0034722
        k(  307) = (  -0.2916667   0.5416667   0.0000000), wk =   0.0069444
        k(  308) = (   0.5416667  -0.2500000   0.0000000), wk =   0.0069444
        k(  309) = (  -0.3333333   0.5833333   0.0000000), wk =   0.0069444
        k(  310) = (   0.5833333  -0.2500000   0.0000000), wk =   0.0069444
        k(  311) = (  -0.3750000   0.6250000   0.0000000), wk =   0.0069444
        k(  312) = (   0.5833333  -0.2916667   0.0000000), wk =   0.0034722
        k(  313) = (  -0.3333333   0.6250000   0.0000000), wk =   0.0069444
        k(  314) = (   0.6250000  -0.2916667   0.0000000), wk =   0.0069444

     Largest allocated arrays     est. size (Mb)     dimensions
     Largest temporary arrays     est. size (Mb)     dimensions

     Initial potential from superposition of free atoms

     starting charge   15.99979, renormalised to   16.00000

     negative rho (up, down):  8.276E-06 2.759E-06
     Starting wfc are   16 randomized atomic wfcs

     Self-consistent Calculation

     iteration #  1     ecut=    40.00 Ry     beta=0.30
     Davidson diagonalization with overlap
     ethr =  1.00E-02,  avg # of iterations =  6.2

     negative rho (up, down):  5.018E-06 1.500E-06

     Magnetic moment per site:
     atom:    1    charge:    1.6476    magn:    0.5748    constr:    0.0000
     atom:    2    charge:    1.6477    magn:    0.5748    constr:    0.0000
     atom:    3    charge:    1.6481    magn:    0.5750    constr:    0.0000
     atom:    4    charge:    1.6481    magn:    0.5750    constr:    0.0000

 ------ SPIN UP ------------

          k = 0.0000 0.0000 0.0000     band energies (ev):

   -25.4001 -25.3344 -12.5619 -12.0293  -9.8659  -9.8640  -9.8588  -9.8569
     1.9712   2.0988   2.1010   2.1198   2.1215   3.1105   4.2883   5.4145

     occupation numbers
     1.0000   1.0000   1.0000   1.0000   1.0000   1.0000   1.0000   1.0000
     0.0000   0.0000   0.0000   0.0000   0.0000   0.0000   0.0000   0.0000

[...]

          k =-0.0417 0.0241 0.0000     band energies (ev):

[...]

 ------ SPIN DOWN ----------

[...]

     the Fermi energy is    -3.4070 ev

!    total energy              =     -45.36031046 Ry
     Harris-Foulkes estimate   =     -45.23742945 Ry
     estimated scf accuracy    <       0.54459693 Ry

     The total energy is the sum of the following terms:

     one-electron contribution =    -522.12068177 Ry
     hartree contribution      =     260.97525228 Ry
     xc contribution           =     -13.91806812 Ry
     ewald contribution        =     225.00644935 Ry
     scf correction            =       4.69673803 Ry
     smearing contrib. (-TS)   =      -0.00000023 Ry

     total magnetization       =     0.49 Bohr mag/cell
     absolute magnetization    =     0.54 Bohr mag/cell

[...]

          k =-0.3333 0.5292 0.0000     band energies (ev):

[...]

          k = 0.6250 0.0241 0.0000     band energies (ev):

[...]

     one-electron contribution =    -520.05609632 Ry
     hartree contribution      =     263.50187200 Ry
     xc contribution           =     -14.03093727 Ry
     ewald contribution        =     225.00644935 Ry
     scf correction            =      -0.00012905 Ry
     smearing contrib. (-TS)   =       0.00000000 Ry

[...]

     iteration # 12     ecut=    40.00 Ry     beta=0.30
     Davidson diagonalization with overlap
     ethr =  2.08E-12,  avg # of iterations =  2.2

     negative rho (up, down):  6.898E-07 6.898E-07

     Magnetic moment per site:
     atom:    1    charge:    1.7149    magn:    0.0000    constr:    0.0000
     atom:    2    charge:    1.7149    magn:    0.0000    constr:    0.0000
     atom:    3    charge:    1.7154    magn:    0.0000    constr:    0.0000
     atom:    4    charge:    1.7154    magn:    0.0000    constr:    0.0000

     End of self-consistent calculation

 ------ SPIN UP ------------

          k = 0.0000 0.0000 0.0000 (  3053 PWs)   bands (ev):

[...]

          k =-0.0417 0.0241 0.0000 (  3069 PWs)   bands (ev):

[...]

 ------ SPIN DOWN ----------

[...]

          k =-0.3333 0.5292 0.0000 (  3000 PWs)   bands (ev):

[...]

          k = 0.6250 0.0241 0.0000 (  3000 PWs)   bands (ev):

   -13.6621 -13.5957 -12.7126 -12.6527 -10.8006 -10.7566  -1.4263  -0.9058
    -0.0833   0.4140   9.4243  11.0025  11.5787  12.0461  12.5727  12.6649

     occupation numbers
     1.0000   1.0000   1.0000   1.0000   1.0000   1.0000   1.0000   1.0000
     0.0000   0.0000   0.0000   0.0000   0.0000   0.0000   0.0000   0.0000

     the Fermi energy is    -0.3506 ev

!    total energy              =     -45.57884131 Ry
     Harris-Foulkes estimate   =     -45.57884129 Ry
     estimated scf accuracy    <          1.5E-11 Ry

     The total energy is the sum of the following terms:

     one-electron contribution =    -520.05619385 Ry
     hartree contribution      =     263.50183774 Ry
     xc contribution           =     -14.03093455 Ry
     ewald contribution        =     225.00644935 Ry
     smearing contrib. (-TS)   =       0.00000000 Ry

     total magnetization       =    -0.00 Bohr mag/cell
     absolute magnetization    =     0.00 Bohr mag/cell

     convergence has been achieved in  12 iterations

     Forces acting on atoms (Ry/au):

     atom    1 type  1   force =     0.00000000   -0.00011273   -0.00223386
     atom    2 type  1   force =     0.00000000    0.00011273   -0.00223386
     atom    3 type  1   force =     0.00000000   -0.00011272    0.00223386
     atom    4 type  1   force =     0.00000000    0.00011272    0.00223386
     The non-local contrib.  to forces
     atom    1 type  1   force =     0.00000000   -0.00003849   -0.00145021
     atom    2 type  1   force =     0.00000000    0.00003850   -0.00145022
     atom    3 type  1   force =     0.00000000   -0.00003849    0.00143955
     atom    4 type  1   force =     0.00000000    0.00003850    0.00143955
     The ionic contribution  to forces
     atom    1 type  1   force =     0.00000000   -0.00037336  -13.84074850
     atom    2 type  1   force =     0.00000000    0.00037336  -13.84074850
     atom    3 type  1   force =     0.00000000   -0.00037336   13.84074850
     atom    4 type  1   force =    -0.00000000    0.00037336   13.84074850
     The local contribution  to forces
     atom    1 type  1   force =     0.00000000    0.00029937   13.83995462
     atom    2 type  1   force =    -0.00000000   -0.00029937   13.83995462
     atom    3 type  1   force =    -0.00000000    0.00029940  -13.83995664
     atom    4 type  1   force =    -0.00000000   -0.00029939  -13.83995664
     The core correction contribution to forces
     atom    1 type  1   force =     0.00000000    0.00000000    0.00000000
     atom    2 type  1   force =     0.00000000    0.00000000    0.00000000
     atom    3 type  1   force =     0.00000000    0.00000000    0.00000000
     atom    4 type  1   force =     0.00000000    0.00000000    0.00000000
     The Hubbard contrib.    to forces
     atom    1 type  1   force =     0.00000000    0.00000000    0.00000000
     atom    2 type  1   force =     0.00000000    0.00000000    0.00000000
     atom    3 type  1   force =     0.00000000    0.00000000    0.00000000
     atom    4 type  1   force =     0.00000000    0.00000000    0.00000000
     The SCF correction term to forces
     atom    1 type  1   force =     0.00000000   -0.00000024    0.00000463
     atom    2 type  1   force =    -0.00000000    0.00000024    0.00000464
     atom    3 type  1   force =    -0.00000000   -0.00000026   -0.00000315
     atom    4 type  1   force =     0.00000000    0.00000026   -0.00000316

     Total force =     0.004473     Total SCF correction =     0.000008

     entering subroutine stress ...

          total   stress  (Ry/bohr**3)                   (kbar)     P=   -4.94
  -0.00006826   0.00000000   0.00000000        -10.04      0.00      0.00
   0.00000000  -0.00006800  -0.00000000          0.00    -10.00     -0.00
   0.00000000  -0.00000000   0.00003545          0.00     -0.00      5.22

     kinetic stress (kbar)   3524.94      0.00      0.00
                                0.00   3524.82     -0.00
                                0.00     -0.00   4089.15

     local   stress (kbar)-111296.71      0.00      0.00
                                0.00-111297.39     -0.00
                                0.00     -0.00 113617.78

     nonloc. stress (kbar)   -152.59     -0.00      0.00
                               -0.00   -152.58     -0.00
                                0.00     -0.00   -151.59

     hartree stress (kbar)  54127.45     -0.00      0.00
                               -0.00  54127.54      0.00
                                0.00      0.00 -53782.79

     exc-cor stress (kbar)   -891.24      0.00      0.00
                                0.00   -891.24     -0.00
                                0.00     -0.00   -924.65

     corecor stress (kbar)      0.00      0.00      0.00
                                0.00      0.00      0.00
                                0.00      0.00      0.00

     ewald   stress (kbar)  54678.12      0.00     -0.00
                                0.00  54678.84      0.00
                               -0.00      0.00 -62842.69

     hubbard stress (kbar)      0.00      0.00      0.00
                                0.00      0.00      0.00
                                0.00      0.00      0.00

     london  stress (kbar)      0.00      0.00      0.00
                                0.00      0.00      0.00
                                0.00      0.00      0.00

     XDM     stress (kbar)      0.00      0.00      0.00
                                0.00      0.00      0.00
                                0.00      0.00      0.00

     dft-nl  stress (kbar)      0.00      0.00      0.00
                                0.00      0.00      0.00
                                0.00      0.00      0.00

     Writing output data file gra.spin.save

     General routines

     Parallel routines

   This run was terminated on:  17:33:17  30Apr2020

   JOB DONE.