     Program PWSCF v.5.1 starts on 18Feb2020 at 21:56:35

     Current dimensions of program PWSCF are:
     Max number of different atomic species (ntypx) = 10
     Max number of k-points (npk) =  40000
     Max angular momentum in pseudopotentials (lmaxx) =  3

     Subspace diagonalization in iterative solution of the eigenvalue problem:
     a serial algorithm will be used

     bravais-lattice index     =            2
     lattice parameter (alat)  =       6.6590  a.u.
     unit-cell volume          =      73.8188 (a.u.)^3
     number of atoms/cell      =            1
     number of atomic types    =            1
     number of electrons       =        18.00
     number of Kohn-Sham states=           13
     kinetic-energy cutoff     =      40.0000  Ry
     charge density cutoff     =     160.0000  Ry
     convergence threshold     =      1.0E-06
     mixing beta               =       0.7000
     number of iterations used =            8  plain     mixing
     Exchange-correlation      = PBESOL ( 1  4 10  8 0)

     celldm(1)=   6.659000  celldm(2)=   0.000000  celldm(3)=   0.000000
     celldm(4)=   0.000000  celldm(5)=   0.000000  celldm(6)=   0.000000

     crystal axes: (cart. coord. in units of alat)
               a(1) = (  -0.500000   0.000000   0.500000 )
               a(2) = (   0.000000   0.500000   0.500000 )
               a(3) = (  -0.500000   0.500000   0.000000 )

     reciprocal axes: (cart. coord. in units 2 pi/alat)
               b(1) = ( -1.000000 -1.000000  1.000000 )
               b(2) = (  1.000000  1.000000  1.000000 )
               b(3) = ( -1.000000  1.000000 -1.000000 )

     PseudoPot. # 1 for Ni read from file:
     ../pseudo/Ni.pbesol-spn-rrkjus_psl.1.0.0.UPF
     MD5 check sum: 6fc0a587bf949a08f2faed986b854013
     Pseudo is Ultrasoft + core correction, Zval = 18.0
     Generated using "atomic" code by A. Dal Corso  v.6.3
     Using radial grid of 1195 points,  6 beta functions with:
                l(1) =   0
                l(2) =   0
                l(3) =   1
                l(4) =   1
                l(5) =   2
                l(6) =   2
     Q(r) pseudized with 0 coefficients

     atomic species   valence    mass     pseudopotential
        Ni            18.00    58.69000     Ni( 1.00)

     48 Sym. Ops., with inversion, found

                                    s                        frac. trans.

      isym =  1     identity

 cryst.   s( 1) = (     1          0          0      )
                  (     0          1          0      )
                  (     0          0          1      )

 cart.    s( 1) = (  1.0000000  0.0000000  0.0000000 )
                  (  0.0000000  1.0000000  0.0000000 )
                  (  0.0000000  0.0000000  1.0000000 )

      isym =  2     180 deg rotation - cart. axis [0,0,1]

[...]

 cryst.   s( 9) = (    -1          0          0      )
                  (     0          0         -1      )
                  (     0         -1          0      )

 cart.    s( 9) = (  0.0000000  0.0000000  1.0000000 )
                  (  0.0000000 -1.0000000  0.0000000 )
                  (  1.0000000  0.0000000  0.0000000 )

[...]

 cryst.   s(10) = (     1          0          0      )
                  (     1         -1          0      )
                  (     1          0         -1      )

 cart.    s(10) = (  0.0000000  0.0000000 -1.0000000 )
                  (  0.0000000 -1.0000000  0.0000000 )
                  ( -1.0000000  0.0000000  0.0000000 )

[...]

      isym = 24     120 deg rotation - cart. axis [-1,-1,1]

[...]

      isym = 25     inversion

[...]

      isym = 26     inv. 180 deg rotation - cart. axis [0,0,1]

[...]

      isym = 48     inv. 120 deg rotation - cart. axis [-1,-1,1]

 cryst.   s(48) = (    -1          1          0      )
                  (     0          1         -1      )
                  (     0          1          0      )

 cart.    s(48) = (  0.0000000  0.0000000  1.0000000 )
                  ( -1.0000000  0.0000000  0.0000000 )
                  (  0.0000000  1.0000000  0.0000000 )

     point group O_h (m-3m)
     there are 10 classes
     the character table:

       E     8C3   6C2'  6C4   3C2   i     6S4   8S6   3s_h  6s_d
A_1g   1.00  1.00  1.00  1.00  1.00  1.00  1.00  1.00  1.00  1.00
A_2g   1.00  1.00 -1.00 -1.00  1.00  1.00 -1.00  1.00  1.00 -1.00
E_g    2.00 -1.00  0.00  0.00  2.00  2.00  0.00 -1.00  2.00  0.00
T_1g   3.00  0.00 -1.00  1.00 -1.00  3.00  1.00  0.00 -1.00 -1.00
T_2g   3.00  0.00  1.00 -1.00 -1.00  3.00 -1.00  0.00 -1.00  1.00
A_1u   1.00  1.00  1.00  1.00  1.00 -1.00 -1.00 -1.00 -1.00 -1.00
A_2u   1.00  1.00 -1.00 -1.00  1.00 -1.00  1.00 -1.00 -1.00  1.00
E_u    2.00 -1.00  0.00  0.00  2.00 -2.00  0.00  1.00 -2.00  0.00
T_1u   3.00  0.00 -1.00  1.00 -1.00 -3.00 -1.00  0.00  1.00  1.00
T_2u   3.00  0.00  1.00 -1.00 -1.00 -3.00  1.00  0.00  1.00 -1.00

     the symmetry operations in each class:
     E        1
     3C2      2    4    3
     6C2'     5    6   14   13   10    9
     6C4      7    8   15   16   12   11
     8C3     17   19   20   18   24   21   22   23
     i       25
     3s_h    26   28   27
     6s_d    29   30   38   37   34   33
     6S4     31   32   39   40   36   35
     8S6     41   43   44   42   48   45   46   47

   Cartesian axes

     site n.     atom                  positions (alat units)
         1           Ni  tau(   1) = (   0.0000000   0.0000000   0.0000000  )

   Crystallographic axes

     site n.     atom                  positions (cryst. coord.)
         1           Ni  tau(   1) = (  0.0000000  0.0000000  0.0000000  )

     number of k points=   146  Marzari-Vanderbilt smearing, width (Ry)=  0.0200
                       cart. coord. in units 2pi/alat
        k(    1) = (  -0.0454545   0.0454545   0.0454545), wk =   0.0030053
        k(    2) = (  -0.1363636   0.1363636  -0.0454545), wk =   0.0090158
        k(    3) = (  -0.2272727   0.2272727  -0.1363636), wk =   0.0090158
        k(    4) = (  -0.3181818   0.3181818  -0.2272727), wk =   0.0090158
        k(    5) = (  -0.4090909   0.4090909  -0.3181818), wk =   0.0090158
        k(    6) = (   0.5000000  -0.5000000   0.5909091), wk =   0.0090158
        k(    7) = (   0.4090909  -0.4090909   0.5000000), wk =   0.0090158
        k(    8) = (   0.3181818  -0.3181818   0.4090909), wk =   0.0090158
        k(    9) = (   0.2272727  -0.2272727   0.3181818), wk =   0.0090158
        k(   10) = (   0.1363636  -0.1363636   0.2272727), wk =   0.0090158
        k(   11) = (   0.0454545  -0.0454545   0.1363636), wk =   0.0090158
        k(   12) = (  -0.0454545   0.2272727   0.0454545), wk =   0.0090158
        k(   13) = (  -0.1363636   0.3181818  -0.0454545), wk =   0.0180316
        k(   14) = (  -0.2272727   0.4090909  -0.1363636), wk =   0.0180316
        k(   15) = (  -0.3181818   0.5000000  -0.2272727), wk =   0.0180316
        k(   16) = (   0.5909091  -0.4090909   0.6818182), wk =   0.0180316
        k(   17) = (   0.5000000  -0.3181818   0.5909091), wk =   0.0180316
        k(   18) = (   0.4090909  -0.2272727   0.5000000), wk =   0.0180316
        k(   19) = (   0.3181818  -0.1363636   0.4090909), wk =   0.0180316
        k(   20) = (   0.2272727  -0.0454545   0.3181818), wk =   0.0180316
        k(   21) = (   0.1363636   0.0454545   0.2272727), wk =   0.0180316
        k(   22) = (  -0.0454545   0.4090909   0.0454545), wk =   0.0090158
        k(   23) = (  -0.1363636   0.5000000  -0.0454545), wk =   0.0180316
        k(   24) = (  -0.2272727   0.5909091  -0.1363636), wk =   0.0180316
        k(   25) = (   0.6818182  -0.3181818   0.7727273), wk =   0.0180316
        k(   26) = (   0.5909091  -0.2272727   0.6818182), wk =   0.0180316
        k(   27) = (   0.5000000  -0.1363636   0.5909091), wk =   0.0180316
        k(   28) = (   0.4090909  -0.0454545   0.5000000), wk =   0.0180316
        k(   29) = (   0.3181818   0.0454545   0.4090909), wk =   0.0180316
        k(   30) = (   0.2272727   0.1363636   0.3181818), wk =   0.0180316
        k(   31) = (  -0.0454545   0.5909091   0.0454545), wk =   0.0090158
        k(   32) = (  -0.1363636   0.6818182  -0.0454545), wk =   0.0180316
        k(   33) = (   0.7727273  -0.2272727   0.8636364), wk =   0.0180316
        k(   34) = (   0.6818182  -0.1363636   0.7727273), wk =   0.0180316
        k(   35) = (   0.5909091  -0.0454545   0.6818182), wk =   0.0180316
        k(   36) = (   0.5000000   0.0454545   0.5909091), wk =   0.0180316
        k(   37) = (   0.4090909   0.1363636   0.5000000), wk =   0.0180316
        k(   38) = (   0.3181818   0.2272727   0.4090909), wk =   0.0180316
        k(   39) = (  -0.0454545   0.7727273   0.0454545), wk =   0.0090158
        k(   40) = (   0.8636364  -0.1363636   0.9545455), wk =   0.0180316
        k(   41) = (   0.7727273  -0.0454545   0.8636364), wk =   0.0180316
        k(   42) = (   0.6818182   0.0454545   0.7727273), wk =   0.0180316
        k(   43) = (   0.5909091   0.1363636   0.6818182), wk =   0.0180316
        k(   44) = (   0.5000000   0.2272727   0.5909091), wk =   0.0180316
        k(   45) = (   0.4090909   0.3181818   0.5000000), wk =   0.0180316
        k(   46) = (  -0.0454545  -1.0454545   0.0454545), wk =   0.0090158
        k(   47) = (  -0.1363636  -0.9545455  -0.0454545), wk =   0.0180316
        k(   48) = (  -0.2272727  -0.8636364  -0.1363636), wk =   0.0180316
        k(   49) = (  -0.3181818  -0.7727273  -0.2272727), wk =   0.0180316
        k(   50) = (  -0.4090909  -0.6818182  -0.3181818), wk =   0.0180316
        k(   51) = (  -0.5000000  -0.5909091  -0.4090909), wk =   0.0090158
        k(   52) = (  -0.0454545  -0.8636364   0.0454545), wk =   0.0090158
        k(   53) = (  -0.1363636  -0.7727273  -0.0454545), wk =   0.0180316
        k(   54) = (  -0.2272727  -0.6818182  -0.1363636), wk =   0.0180316
        k(   55) = (  -0.3181818  -0.5909091  -0.2272727), wk =   0.0180316
        k(   56) = (  -0.0454545  -0.6818182   0.0454545), wk =   0.0090158
        k(   57) = (  -0.1363636  -0.5909091  -0.0454545), wk =   0.0180316
        k(   58) = (  -0.2272727  -0.5000000  -0.1363636), wk =   0.0180316
        k(   59) = (  -0.0454545  -0.5000000   0.0454545), wk =   0.0090158
        k(   60) = (  -0.1363636  -0.4090909  -0.0454545), wk =   0.0180316
[...]
        k(  132) = (   0.3181818  -0.3181818   0.9545455), wk =   0.0090158
        k(  133) = (  -0.3181818   0.5000000   0.3181818), wk =   0.0090158
        k(  134) = (   0.5909091  -0.4090909   1.2272727), wk =   0.0180316
        k(  135) = (   0.5000000  -0.3181818   1.1363636), wk =   0.0180316
        k(  136) = (   0.4090909  -0.2272727   1.0454545), wk =   0.0180316
        k(  137) = (  -0.3181818  -1.3181818   0.3181818), wk =   0.0090158
        k(  138) = (  -0.4090909  -1.2272727   0.2272727), wk =   0.0180316
        k(  139) = (  -0.5000000  -1.1363636   0.1363636), wk =   0.0090158
        k(  140) = (  -0.3181818  -1.1363636   0.3181818), wk =   0.0090158
        k(  141) = (  -0.4090909   0.4090909   0.4090909), wk =   0.0030053
        k(  142) = (   0.5000000  -0.5000000   1.3181818), wk =   0.0090158
        k(  143) = (   0.4090909  -0.4090909   1.2272727), wk =   0.0090158
        k(  144) = (  -0.4090909  -1.4090909   0.4090909), wk =   0.0090158
        k(  145) = (  -0.5000000  -1.3181818   0.3181818), wk =   0.0090158
        k(  146) = (   0.5000000  -0.5000000  -0.5000000), wk =   0.0015026

                       cryst. coord.
        k(    1) = (   0.0454545   0.0454545   0.0454545), wk =   0.0030053
        k(    2) = (   0.0454545   0.0454545   0.1363636), wk =   0.0090158
        k(    3) = (   0.0454545   0.0454545   0.2272727), wk =   0.0090158
        k(    4) = (   0.0454545   0.0454545   0.3181818), wk =   0.0090158
        k(    5) = (   0.0454545   0.0454545   0.4090909), wk =   0.0090158
        k(    6) = (   0.0454545   0.0454545  -0.5000000), wk =   0.0090158
        k(    7) = (   0.0454545   0.0454545  -0.4090909), wk =   0.0090158
        k(    8) = (   0.0454545   0.0454545  -0.3181818), wk =   0.0090158
        k(    9) = (   0.0454545   0.0454545  -0.2272727), wk =   0.0090158
        k(   10) = (   0.0454545   0.0454545  -0.1363636), wk =   0.0090158
        k(   11) = (   0.0454545   0.0454545  -0.0454545), wk =   0.0090158
        k(   12) = (   0.0454545   0.1363636   0.1363636), wk =   0.0090158
        k(   13) = (   0.0454545   0.1363636   0.2272727), wk =   0.0180316
        k(   14) = (   0.0454545   0.1363636   0.3181818), wk =   0.0180316
        k(   15) = (   0.0454545   0.1363636   0.4090909), wk =   0.0180316
        k(   16) = (   0.0454545   0.1363636  -0.5000000), wk =   0.0180316
        k(   17) = (   0.0454545   0.1363636  -0.4090909), wk =   0.0180316
        k(   18) = (   0.0454545   0.1363636  -0.3181818), wk =   0.0180316
        k(   19) = (   0.0454545   0.1363636  -0.2272727), wk =   0.0180316
        k(   20) = (   0.0454545   0.1363636  -0.1363636), wk =   0.0180316
        k(   21) = (   0.0454545   0.1363636  -0.0454545), wk =   0.0180316
        k(   22) = (   0.0454545   0.2272727   0.2272727), wk =   0.0090158
        k(   23) = (   0.0454545   0.2272727   0.3181818), wk =   0.0180316
        k(   24) = (   0.0454545   0.2272727   0.4090909), wk =   0.0180316
        k(   25) = (   0.0454545   0.2272727  -0.5000000), wk =   0.0180316
        k(   26) = (   0.0454545   0.2272727  -0.4090909), wk =   0.0180316
        k(   27) = (   0.0454545   0.2272727  -0.3181818), wk =   0.0180316
        k(   28) = (   0.0454545   0.2272727  -0.2272727), wk =   0.0180316
        k(   29) = (   0.0454545   0.2272727  -0.1363636), wk =   0.0180316
        k(   30) = (   0.0454545   0.2272727  -0.0454545), wk =   0.0180316
        k(   31) = (   0.0454545   0.3181818   0.3181818), wk =   0.0090158
        k(   32) = (   0.0454545   0.3181818   0.4090909), wk =   0.0180316
        k(   33) = (   0.0454545   0.3181818  -0.5000000), wk =   0.0180316
        k(   34) = (   0.0454545   0.3181818  -0.4090909), wk =   0.0180316
        k(   35) = (   0.0454545   0.3181818  -0.3181818), wk =   0.0180316
        k(   36) = (   0.0454545   0.3181818  -0.2272727), wk =   0.0180316
        k(   37) = (   0.0454545   0.3181818  -0.1363636), wk =   0.0180316
        k(   38) = (   0.0454545   0.3181818  -0.0454545), wk =   0.0180316
        k(   39) = (   0.0454545   0.4090909   0.4090909), wk =   0.0090158
        k(   40) = (   0.0454545   0.4090909  -0.5000000), wk =   0.0180316
        k(   41) = (   0.0454545   0.4090909  -0.4090909), wk =   0.0180316
        k(   42) = (   0.0454545   0.4090909  -0.3181818), wk =   0.0180316
        k(   43) = (   0.0454545   0.4090909  -0.2272727), wk =   0.0180316
        k(   44) = (   0.0454545   0.4090909  -0.1363636), wk =   0.0180316
        k(   45) = (   0.0454545   0.4090909  -0.0454545), wk =   0.0180316
        k(   46) = (   0.0454545  -0.5000000  -0.5000000), wk =   0.0090158
        k(   47) = (   0.0454545  -0.5000000  -0.4090909), wk =   0.0180316
        k(   48) = (   0.0454545  -0.5000000  -0.3181818), wk =   0.0180316
        k(   49) = (   0.0454545  -0.5000000  -0.2272727), wk =   0.0180316
        k(   50) = (   0.0454545  -0.5000000  -0.1363636), wk =   0.0180316
        k(   51) = (   0.0454545  -0.5000000  -0.0454545), wk =   0.0090158
        k(   52) = (   0.0454545  -0.4090909  -0.4090909), wk =   0.0090158
        k(   53) = (   0.0454545  -0.4090909  -0.3181818), wk =   0.0180316
        k(   54) = (   0.0454545  -0.4090909  -0.2272727), wk =   0.0180316
        k(   55) = (   0.0454545  -0.4090909  -0.1363636), wk =   0.0180316
        k(   56) = (   0.0454545  -0.3181818  -0.3181818), wk =   0.0090158
        k(   57) = (   0.0454545  -0.3181818  -0.2272727), wk =   0.0180316
        k(   58) = (   0.0454545  -0.3181818  -0.1363636), wk =   0.0180316
        k(   59) = (   0.0454545  -0.2272727  -0.2272727), wk =   0.0090158
        k(   60) = (   0.0454545  -0.2272727  -0.1363636), wk =   0.0180316
[...]
        k(  132) = (   0.3181818   0.3181818  -0.3181818), wk =   0.0090158
        k(  133) = (   0.3181818   0.4090909   0.4090909), wk =   0.0090158
        k(  134) = (   0.3181818   0.4090909  -0.5000000), wk =   0.0180316
        k(  135) = (   0.3181818   0.4090909  -0.4090909), wk =   0.0180316
        k(  136) = (   0.3181818   0.4090909  -0.3181818), wk =   0.0180316
        k(  137) = (   0.3181818  -0.5000000  -0.5000000), wk =   0.0090158
        k(  138) = (   0.3181818  -0.5000000  -0.4090909), wk =   0.0180316
        k(  139) = (   0.3181818  -0.5000000  -0.3181818), wk =   0.0090158
        k(  140) = (   0.3181818  -0.4090909  -0.4090909), wk =   0.0090158
        k(  141) = (   0.4090909   0.4090909   0.4090909), wk =   0.0030053
        k(  142) = (   0.4090909   0.4090909  -0.5000000), wk =   0.0090158
        k(  143) = (   0.4090909   0.4090909  -0.4090909), wk =   0.0090158
        k(  144) = (   0.4090909  -0.5000000  -0.5000000), wk =   0.0090158
        k(  145) = (   0.4090909  -0.5000000  -0.4090909), wk =   0.0090158
        k(  146) = (  -0.5000000  -0.5000000  -0.5000000), wk =   0.0015026

     Largest allocated arrays     est. size (Mb)     dimensions
     Largest temporary arrays     est. size (Mb)     dimensions

     Check: negative/imaginary core charge=   -0.000044    0.000000

     Initial potential from superposition of free atoms

     starting charge   17.99977, renormalised to   18.00000
     Starting wfc are   10 randomized atomic wfcs +    3 random wfc

     Self-consistent Calculation

     iteration #  1     ecut=    40.00 Ry     beta=0.70
     Davidson diagonalization with overlap
     ethr =  1.00E-02,  avg # of iterations =  4.2

     Threshold (ethr) on eigenvalues was too large:
     Diagonalizing with lowered threshold

     Davidson diagonalization with overlap
     ethr =  1.95E-04,  avg # of iterations =  1.2

     total energy              =    -338.86616024 Ry
     Harris-Foulkes estimate   =    -338.88772021 Ry
     estimated scf accuracy    <       0.03633404 Ry

[...]

     total energy              =    -338.87797086 Ry
     Harris-Foulkes estimate   =    -338.87797139 Ry
     estimated scf accuracy    <       0.00000160 Ry

     iteration #  6     ecut=    40.00 Ry     beta=0.70
     Davidson diagonalization with overlap
     ethr =  8.89E-09,  avg # of iterations =  1.4

     End of self-consistent calculation

          k =-0.0455 0.0455 0.0455 (   331 PWs)   bands (ev):

   -85.6260 -45.6202 -45.6186 -45.6186   8.7583  15.5306  15.5701  15.5701
    16.6143  16.6143  40.8738  43.7748  44.7512

     occupation numbers
     1.0000   1.0000   1.0000   1.0000   1.0000   1.0000   1.0000   1.0000
     1.0002   1.0002   0.0000   0.0000   0.0000

[...]

          k = 0.5000-0.5000 0.5909 (   319 PWs)   bands (ev):

[...]

          k =-0.5000-1.3182 0.3182 (   312 PWs)   bands (ev):

[...]

          k = 0.5000-0.5000-0.5000 (   332 PWs)   bands (ev):

   -85.5908 -45.7484 -45.5970 -45.5970  13.0895  15.5423  15.5423  17.1917
    17.3792  17.3792  23.5578  39.6502  42.1104

     occupation numbers
     1.0000   1.0000   1.0000   1.0000   1.0000   1.0000   1.0000   1.0771
     0.8182   0.8182   0.0000   0.0000   0.0000

     the Fermi energy is    17.5358 ev

!    total energy              =    -338.87797109 Ry
     Harris-Foulkes estimate   =    -338.87797109 Ry
     estimated scf accuracy    <          2.7E-09 Ry

     The total energy is the sum of the following terms:

     one-electron contribution =    -186.21672497 Ry
     hartree contribution      =     104.32336915 Ry
     xc contribution           =     -33.90360056 Ry
     ewald contribution        =    -223.08083981 Ry
     smearing contrib. (-TS)   =      -0.00017491 Ry

     convergence has been achieved in   6 iterations

     Writing output data file Ni_exc2.save

     General routines

     Parallel routines

   This run was terminated on:  21:57: 0  18Feb2020

   JOB DONE.