     Program PWSCF v.5.1 starts on 18Feb2020 at 21:57: 0

     Current dimensions of program PWSCF are:
     Max number of different atomic species (ntypx) = 10
     Max number of k-points (npk) =  40000
     Max angular momentum in pseudopotentials (lmaxx) =  3

     Subspace diagonalization in iterative solution of the eigenvalue problem:
     a serial algorithm will be used

     bravais-lattice index     =            2
     lattice parameter (alat)  =       6.6590  a.u.
     unit-cell volume          =      73.8188 (a.u.)^3
     number of atoms/cell      =            1
     number of atomic types    =            1
     number of electrons       =        18.00
     number of Kohn-Sham states=           13
     kinetic-energy cutoff     =      40.0000  Ry
     charge density cutoff     =     160.0000  Ry
     convergence threshold     =      1.0E-06
     mixing beta               =       0.7000
     number of iterations used =            8  plain     mixing
     Exchange-correlation      = PBESOL ( 1  4 10  8 0)

     celldm(1)=   6.659000  celldm(2)=   0.000000  celldm(3)=   0.000000
     celldm(4)=   0.000000  celldm(5)=   0.000000  celldm(6)=   0.000000

     crystal axes: (cart. coord. in units of alat)
               a(1) = (  -0.500000   0.000000   0.500000 )
               a(2) = (   0.000000   0.500000   0.500000 )
               a(3) = (  -0.500000   0.500000   0.000000 )

     reciprocal axes: (cart. coord. in units 2 pi/alat)
               b(1) = ( -1.000000 -1.000000  1.000000 )
               b(2) = (  1.000000  1.000000  1.000000 )
               b(3) = ( -1.000000  1.000000 -1.000000 )

     PseudoPot. # 1 for Ni read from file:
     ../pseudo/Ni.pbesol-spn-rrkjus_psl.1.0.0.UPF
     MD5 check sum: 6fc0a587bf949a08f2faed986b854013
     Pseudo is Ultrasoft + core correction, Zval = 18.0
     Generated using "atomic" code by A. Dal Corso  v.6.3
     Using radial grid of 1195 points,  6 beta functions with:
                l(1) =   0
                l(2) =   0
                l(3) =   1
                l(4) =   1
                l(5) =   2
                l(6) =   2
     Q(r) pseudized with 0 coefficients

     atomic species   valence    mass     pseudopotential
        Ni            18.00    58.69000     Ni( 1.00)

     48 Sym. Ops., with inversion, found

                                    s                        frac. trans.

      isym =  1     identity

 cryst.   s( 1) = (     1          0          0      )
                  (     0          1          0      )
                  (     0          0          1      )

 cart.    s( 1) = (  1.0000000  0.0000000  0.0000000 )
                  (  0.0000000  1.0000000  0.0000000 )
                  (  0.0000000  0.0000000  1.0000000 )

      isym =  2     180 deg rotation - cart. axis [0,0,1]

[...]

 cryst.   s( 9) = (    -1          0          0      )
                  (     0          0         -1      )
                  (     0         -1          0      )

 cart.    s( 9) = (  0.0000000  0.0000000  1.0000000 )
                  (  0.0000000 -1.0000000  0.0000000 )
                  (  1.0000000  0.0000000  0.0000000 )

[...]

 cryst.   s(10) = (     1          0          0      )
                  (     1         -1          0      )
                  (     1          0         -1      )

 cart.    s(10) = (  0.0000000  0.0000000 -1.0000000 )
                  (  0.0000000 -1.0000000  0.0000000 )
                  ( -1.0000000  0.0000000  0.0000000 )

[...]

      isym = 24     120 deg rotation - cart. axis [-1,-1,1]

[...]

      isym = 25     inversion

[...]

      isym = 26     inv. 180 deg rotation - cart. axis [0,0,1]

[...]

      isym = 48     inv. 120 deg rotation - cart. axis [-1,-1,1]

 cryst.   s(48) = (    -1          1          0      )
                  (     0          1         -1      )
                  (     0          1          0      )

 cart.    s(48) = (  0.0000000  0.0000000  1.0000000 )
                  ( -1.0000000  0.0000000  0.0000000 )
                  (  0.0000000  1.0000000  0.0000000 )

     point group O_h (m-3m)
     there are 10 classes
     the character table:

       E     8C3   6C2'  6C4   3C2   i     6S4   8S6   3s_h  6s_d
A_1g   1.00  1.00  1.00  1.00  1.00  1.00  1.00  1.00  1.00  1.00
A_2g   1.00  1.00 -1.00 -1.00  1.00  1.00 -1.00  1.00  1.00 -1.00
E_g    2.00 -1.00  0.00  0.00  2.00  2.00  0.00 -1.00  2.00  0.00
T_1g   3.00  0.00 -1.00  1.00 -1.00  3.00  1.00  0.00 -1.00 -1.00
T_2g   3.00  0.00  1.00 -1.00 -1.00  3.00 -1.00  0.00 -1.00  1.00
A_1u   1.00  1.00  1.00  1.00  1.00 -1.00 -1.00 -1.00 -1.00 -1.00
A_2u   1.00  1.00 -1.00 -1.00  1.00 -1.00  1.00 -1.00 -1.00  1.00
E_u    2.00 -1.00  0.00  0.00  2.00 -2.00  0.00  1.00 -2.00  0.00
T_1u   3.00  0.00 -1.00  1.00 -1.00 -3.00 -1.00  0.00  1.00  1.00
T_2u   3.00  0.00  1.00 -1.00 -1.00 -3.00  1.00  0.00  1.00 -1.00

     the symmetry operations in each class:
     E        1
     3C2      2    4    3
     6C2'     5    6   14   13   10    9
     6C4      7    8   15   16   12   11
     8C3     17   19   20   18   24   21   22   23
     i       25
     3s_h    26   28   27
     6s_d    29   30   38   37   34   33
     6S4     31   32   39   40   36   35
     8S6     41   43   44   42   48   45   46   47

   Cartesian axes

     site n.     atom                  positions (alat units)
         1           Ni  tau(   1) = (   0.0000000   0.0000000   0.0000000  )

   Crystallographic axes

     site n.     atom                  positions (cryst. coord.)
         1           Ni  tau(   1) = (  0.0000000  0.0000000  0.0000000  )

     number of k points=   182  Marzari-Vanderbilt smearing, width (Ry)=  0.0200
                       cart. coord. in units 2pi/alat
        k(    1) = (  -0.0416667   0.0416667   0.0416667), wk =   0.0023148
        k(    2) = (  -0.1250000   0.1250000  -0.0416667), wk =   0.0069444
        k(    3) = (  -0.2083333   0.2083333  -0.1250000), wk =   0.0069444
        k(    4) = (  -0.2916667   0.2916667  -0.2083333), wk =   0.0069444
        k(    5) = (  -0.3750000   0.3750000  -0.2916667), wk =   0.0069444
        k(    6) = (  -0.4583333   0.4583333  -0.3750000), wk =   0.0069444
        k(    7) = (   0.4583333  -0.4583333   0.5416667), wk =   0.0069444
        k(    8) = (   0.3750000  -0.3750000   0.4583333), wk =   0.0069444
        k(    9) = (   0.2916667  -0.2916667   0.3750000), wk =   0.0069444
        k(   10) = (   0.2083333  -0.2083333   0.2916667), wk =   0.0069444
        k(   11) = (   0.1250000  -0.1250000   0.2083333), wk =   0.0069444
        k(   12) = (   0.0416667  -0.0416667   0.1250000), wk =   0.0069444
        k(   13) = (  -0.0416667   0.2083333   0.0416667), wk =   0.0069444
        k(   14) = (  -0.1250000   0.2916667  -0.0416667), wk =   0.0138889
        k(   15) = (  -0.2083333   0.3750000  -0.1250000), wk =   0.0138889
        k(   16) = (  -0.2916667   0.4583333  -0.2083333), wk =   0.0138889
        k(   17) = (  -0.3750000   0.5416667  -0.2916667), wk =   0.0138889
        k(   18) = (   0.5416667  -0.3750000   0.6250000), wk =   0.0138889
        k(   19) = (   0.4583333  -0.2916667   0.5416667), wk =   0.0138889
        k(   20) = (   0.3750000  -0.2083333   0.4583333), wk =   0.0138889
        k(   21) = (   0.2916667  -0.1250000   0.3750000), wk =   0.0138889
        k(   22) = (   0.2083333  -0.0416667   0.2916667), wk =   0.0138889
        k(   23) = (   0.1250000   0.0416667   0.2083333), wk =   0.0138889
        k(   24) = (  -0.0416667   0.3750000   0.0416667), wk =   0.0069444
        k(   25) = (  -0.1250000   0.4583333  -0.0416667), wk =   0.0138889
        k(   26) = (  -0.2083333   0.5416667  -0.1250000), wk =   0.0138889
        k(   27) = (  -0.2916667   0.6250000  -0.2083333), wk =   0.0138889
        k(   28) = (   0.6250000  -0.2916667   0.7083333), wk =   0.0138889
        k(   29) = (   0.5416667  -0.2083333   0.6250000), wk =   0.0138889
        k(   30) = (   0.4583333  -0.1250000   0.5416667), wk =   0.0138889
        k(   31) = (   0.3750000  -0.0416667   0.4583333), wk =   0.0138889
        k(   32) = (   0.2916667   0.0416667   0.3750000), wk =   0.0138889
        k(   33) = (   0.2083333   0.1250000   0.2916667), wk =   0.0138889
        k(   34) = (  -0.0416667   0.5416667   0.0416667), wk =   0.0069444
        k(   35) = (  -0.1250000   0.6250000  -0.0416667), wk =   0.0138889
        k(   36) = (  -0.2083333   0.7083333  -0.1250000), wk =   0.0138889
        k(   37) = (   0.7083333  -0.2083333   0.7916667), wk =   0.0138889
        k(   38) = (   0.6250000  -0.1250000   0.7083333), wk =   0.0138889
        k(   39) = (   0.5416667  -0.0416667   0.6250000), wk =   0.0138889
        k(   40) = (   0.4583333   0.0416667   0.5416667), wk =   0.0138889
        k(   41) = (   0.3750000   0.1250000   0.4583333), wk =   0.0138889
        k(   42) = (   0.2916667   0.2083333   0.3750000), wk =   0.0138889
        k(   43) = (  -0.0416667   0.7083333   0.0416667), wk =   0.0069444
        k(   44) = (  -0.1250000   0.7916667  -0.0416667), wk =   0.0138889
        k(   45) = (   0.7916667  -0.1250000   0.8750000), wk =   0.0138889
        k(   46) = (   0.7083333  -0.0416667   0.7916667), wk =   0.0138889
        k(   47) = (   0.6250000   0.0416667   0.7083333), wk =   0.0138889
        k(   48) = (   0.5416667   0.1250000   0.6250000), wk =   0.0138889
        k(   49) = (   0.4583333   0.2083333   0.5416667), wk =   0.0138889
        k(   50) = (   0.3750000   0.2916667   0.4583333), wk =   0.0138889
        k(   51) = (  -0.0416667   0.8750000   0.0416667), wk =   0.0069444
        k(   52) = (   0.8750000  -0.0416667   0.9583333), wk =   0.0138889
        k(   53) = (   0.7916667   0.0416667   0.8750000), wk =   0.0138889
        k(   54) = (   0.7083333   0.1250000   0.7916667), wk =   0.0138889
        k(   55) = (   0.6250000   0.2083333   0.7083333), wk =   0.0138889
        k(   56) = (   0.5416667   0.2916667   0.6250000), wk =   0.0138889
        k(   57) = (   0.4583333   0.3750000   0.5416667), wk =   0.0138889
        k(   58) = (  -0.0416667  -0.9583333   0.0416667), wk =   0.0069444
        k(   59) = (  -0.1250000  -0.8750000  -0.0416667), wk =   0.0138889
        k(   60) = (  -0.2083333  -0.7916667  -0.1250000), wk =   0.0138889
[...]
        k(  168) = (   0.5416667  -0.2083333   1.1250000), wk =   0.0138889
        k(  169) = (   0.4583333  -0.1250000   1.0416667), wk =   0.0138889
        k(  170) = (  -0.2916667  -1.2083333   0.2916667), wk =   0.0069444
        k(  171) = (  -0.3750000  -1.1250000   0.2083333), wk =   0.0138889
        k(  172) = (  -0.2916667  -1.0416667   0.2916667), wk =   0.0069444
        k(  173) = (  -0.3750000   0.3750000   0.3750000), wk =   0.0023148
        k(  174) = (  -0.4583333   0.4583333   0.2916667), wk =   0.0069444
        k(  175) = (   0.4583333  -0.4583333   1.2083333), wk =   0.0069444
        k(  176) = (   0.3750000  -0.3750000   1.1250000), wk =   0.0069444
        k(  177) = (  -0.3750000   0.5416667   0.3750000), wk =   0.0069444
        k(  178) = (   0.5416667  -0.3750000   1.2916667), wk =   0.0138889
        k(  179) = (   0.4583333  -0.2916667   1.2083333), wk =   0.0138889
        k(  180) = (  -0.3750000  -1.2916667   0.3750000), wk =   0.0069444
        k(  181) = (  -0.4583333   0.4583333   0.4583333), wk =   0.0023148
        k(  182) = (   0.4583333  -0.4583333   1.3750000), wk =   0.0069444

                       cryst. coord.
        k(    1) = (   0.0416667   0.0416667   0.0416667), wk =   0.0023148
        k(    2) = (   0.0416667   0.0416667   0.1250000), wk =   0.0069444
        k(    3) = (   0.0416667   0.0416667   0.2083333), wk =   0.0069444
        k(    4) = (   0.0416667   0.0416667   0.2916667), wk =   0.0069444
        k(    5) = (   0.0416667   0.0416667   0.3750000), wk =   0.0069444
        k(    6) = (   0.0416667   0.0416667   0.4583333), wk =   0.0069444
        k(    7) = (   0.0416667   0.0416667  -0.4583333), wk =   0.0069444
        k(    8) = (   0.0416667   0.0416667  -0.3750000), wk =   0.0069444
        k(    9) = (   0.0416667   0.0416667  -0.2916667), wk =   0.0069444
        k(   10) = (   0.0416667   0.0416667  -0.2083333), wk =   0.0069444
        k(   11) = (   0.0416667   0.0416667  -0.1250000), wk =   0.0069444
        k(   12) = (   0.0416667   0.0416667  -0.0416667), wk =   0.0069444
        k(   13) = (   0.0416667   0.1250000   0.1250000), wk =   0.0069444
        k(   14) = (   0.0416667   0.1250000   0.2083333), wk =   0.0138889
        k(   15) = (   0.0416667   0.1250000   0.2916667), wk =   0.0138889
        k(   16) = (   0.0416667   0.1250000   0.3750000), wk =   0.0138889
        k(   17) = (   0.0416667   0.1250000   0.4583333), wk =   0.0138889
        k(   18) = (   0.0416667   0.1250000  -0.4583333), wk =   0.0138889
        k(   19) = (   0.0416667   0.1250000  -0.3750000), wk =   0.0138889
        k(   20) = (   0.0416667   0.1250000  -0.2916667), wk =   0.0138889
        k(   21) = (   0.0416667   0.1250000  -0.2083333), wk =   0.0138889
        k(   22) = (   0.0416667   0.1250000  -0.1250000), wk =   0.0138889
        k(   23) = (   0.0416667   0.1250000  -0.0416667), wk =   0.0138889
        k(   24) = (   0.0416667   0.2083333   0.2083333), wk =   0.0069444
        k(   25) = (   0.0416667   0.2083333   0.2916667), wk =   0.0138889
        k(   26) = (   0.0416667   0.2083333   0.3750000), wk =   0.0138889
        k(   27) = (   0.0416667   0.2083333   0.4583333), wk =   0.0138889
        k(   28) = (   0.0416667   0.2083333  -0.4583333), wk =   0.0138889
        k(   29) = (   0.0416667   0.2083333  -0.3750000), wk =   0.0138889
        k(   30) = (   0.0416667   0.2083333  -0.2916667), wk =   0.0138889
        k(   31) = (   0.0416667   0.2083333  -0.2083333), wk =   0.0138889
        k(   32) = (   0.0416667   0.2083333  -0.1250000), wk =   0.0138889
        k(   33) = (   0.0416667   0.2083333  -0.0416667), wk =   0.0138889
        k(   34) = (   0.0416667   0.2916667   0.2916667), wk =   0.0069444
        k(   35) = (   0.0416667   0.2916667   0.3750000), wk =   0.0138889
        k(   36) = (   0.0416667   0.2916667   0.4583333), wk =   0.0138889
        k(   37) = (   0.0416667   0.2916667  -0.4583333), wk =   0.0138889
        k(   38) = (   0.0416667   0.2916667  -0.3750000), wk =   0.0138889
        k(   39) = (   0.0416667   0.2916667  -0.2916667), wk =   0.0138889
        k(   40) = (   0.0416667   0.2916667  -0.2083333), wk =   0.0138889
        k(   41) = (   0.0416667   0.2916667  -0.1250000), wk =   0.0138889
        k(   42) = (   0.0416667   0.2916667  -0.0416667), wk =   0.0138889
        k(   43) = (   0.0416667   0.3750000   0.3750000), wk =   0.0069444
        k(   44) = (   0.0416667   0.3750000   0.4583333), wk =   0.0138889
        k(   45) = (   0.0416667   0.3750000  -0.4583333), wk =   0.0138889
        k(   46) = (   0.0416667   0.3750000  -0.3750000), wk =   0.0138889
        k(   47) = (   0.0416667   0.3750000  -0.2916667), wk =   0.0138889
        k(   48) = (   0.0416667   0.3750000  -0.2083333), wk =   0.0138889
        k(   49) = (   0.0416667   0.3750000  -0.1250000), wk =   0.0138889
        k(   50) = (   0.0416667   0.3750000  -0.0416667), wk =   0.0138889
        k(   51) = (   0.0416667   0.4583333   0.4583333), wk =   0.0069444
        k(   52) = (   0.0416667   0.4583333  -0.4583333), wk =   0.0138889
        k(   53) = (   0.0416667   0.4583333  -0.3750000), wk =   0.0138889
        k(   54) = (   0.0416667   0.4583333  -0.2916667), wk =   0.0138889
        k(   55) = (   0.0416667   0.4583333  -0.2083333), wk =   0.0138889
        k(   56) = (   0.0416667   0.4583333  -0.1250000), wk =   0.0138889
        k(   57) = (   0.0416667   0.4583333  -0.0416667), wk =   0.0138889
        k(   58) = (   0.0416667  -0.4583333  -0.4583333), wk =   0.0069444
        k(   59) = (   0.0416667  -0.4583333  -0.3750000), wk =   0.0138889
        k(   60) = (   0.0416667  -0.4583333  -0.2916667), wk =   0.0138889
[...]
        k(  168) = (   0.2916667   0.4583333  -0.3750000), wk =   0.0138889
        k(  169) = (   0.2916667   0.4583333  -0.2916667), wk =   0.0138889
        k(  170) = (   0.2916667  -0.4583333  -0.4583333), wk =   0.0069444
        k(  171) = (   0.2916667  -0.4583333  -0.3750000), wk =   0.0138889
        k(  172) = (   0.2916667  -0.3750000  -0.3750000), wk =   0.0069444
        k(  173) = (   0.3750000   0.3750000   0.3750000), wk =   0.0023148
        k(  174) = (   0.3750000   0.3750000   0.4583333), wk =   0.0069444
        k(  175) = (   0.3750000   0.3750000  -0.4583333), wk =   0.0069444
        k(  176) = (   0.3750000   0.3750000  -0.3750000), wk =   0.0069444
        k(  177) = (   0.3750000   0.4583333   0.4583333), wk =   0.0069444
        k(  178) = (   0.3750000   0.4583333  -0.4583333), wk =   0.0138889
        k(  179) = (   0.3750000   0.4583333  -0.3750000), wk =   0.0138889
        k(  180) = (   0.3750000  -0.4583333  -0.4583333), wk =   0.0069444
        k(  181) = (   0.4583333   0.4583333   0.4583333), wk =   0.0023148
        k(  182) = (   0.4583333   0.4583333  -0.4583333), wk =   0.0069444

     Largest allocated arrays     est. size (Mb)     dimensions
     Largest temporary arrays     est. size (Mb)     dimensions

     Check: negative/imaginary core charge=   -0.000044    0.000000

     Initial potential from superposition of free atoms

     starting charge   17.99977, renormalised to   18.00000
     Starting wfc are   10 randomized atomic wfcs +    3 random wfc

     Self-consistent Calculation

     iteration #  1     ecut=    40.00 Ry     beta=0.70
     Davidson diagonalization with overlap
     ethr =  1.00E-02,  avg # of iterations =  4.2

     Threshold (ethr) on eigenvalues was too large:
     Diagonalizing with lowered threshold

     Davidson diagonalization with overlap
     ethr =  1.95E-04,  avg # of iterations =  1.2

     total energy              =    -338.86645664 Ry
     Harris-Foulkes estimate   =    -338.88802248 Ry
     estimated scf accuracy    <       0.03633926 Ry

[...]

     total energy              =    -338.87828272 Ry
     Harris-Foulkes estimate   =    -338.87828327 Ry
     estimated scf accuracy    <       0.00000167 Ry

     iteration #  6     ecut=    40.00 Ry     beta=0.70
     Davidson diagonalization with overlap
     ethr =  9.29E-09,  avg # of iterations =  1.4

     End of self-consistent calculation

          k =-0.0417 0.0417 0.0417 (   331 PWs)   bands (ev):

   -85.6261 -45.6203 -45.6189 -45.6189   8.7456  15.5336  15.5669  15.5669
    16.6152  16.6152  40.9210  43.9110  44.7879

     occupation numbers
     1.0000   1.0000   1.0000   1.0000   1.0000   1.0000   1.0000   1.0000
     1.0002   1.0002   0.0000   0.0000   0.0000

[...]

          k = 0.4583-0.4583 0.5417 (   319 PWs)   bands (ev):

[...]

          k =-0.4583 0.4583 0.4583 (   317 PWs)   bands (ev):

[...]

          k = 0.4583-0.4583 1.3750 (   318 PWs)   bands (ev):

   -85.5857 -45.5414 -45.4934 -45.4580  13.3126  15.4771  15.7407  16.3397
    17.4434  18.5839  23.7573  37.9625  40.7343

     occupation numbers
     1.0000   1.0000   1.0000   1.0000   1.0000   1.0000   1.0000   1.0000
     0.6457   0.0000   0.0000   0.0000   0.0000

     the Fermi energy is    17.5341 ev

!    total energy              =    -338.87828296 Ry
     Harris-Foulkes estimate   =    -338.87828296 Ry
     estimated scf accuracy    <          2.9E-09 Ry

     The total energy is the sum of the following terms:

     one-electron contribution =    -186.21699852 Ry
     hartree contribution      =     104.32334657 Ry
     xc contribution           =     -33.90359484 Ry
     ewald contribution        =    -223.08083981 Ry
     smearing contrib. (-TS)   =      -0.00019637 Ry

     convergence has been achieved in   6 iterations

     Writing output data file Ni_exc2.save

     General routines

     Parallel routines

   This run was terminated on:  21:57:40  18Feb2020

   JOB DONE.