     Program PWSCF v.5.1 starts on 16Apr2020 at 14: 1:58

     Current dimensions of program PWSCF are:
     Max number of different atomic species (ntypx) = 10
     Max number of k-points (npk) =  40000
     Max angular momentum in pseudopotentials (lmaxx) =  3

     IMPORTANT: XC functional enforced from input :
     Exchange-correlation      = PBE ( 1  4  3  4 0)
     Any further DFT definition will be discarded
     Please, verify this is what you really want

               file C.pbe-rrkjus.UPF: wavefunction(s)  2S 2P renormalized

     Subspace diagonalization in iterative solution of the eigenvalue problem:
     a serial algorithm will be used

     Generating pointlists ...
     new r_m :   0.2381 (alat units)  1.1104 (a.u.) for type    1

     Title:
     graphene

     bravais-lattice index     =           12
     lattice parameter (alat)  =       4.6627  a.u.
     unit-cell volume          =     711.6007 (a.u.)^3
     number of atoms/cell      =            4
     number of atomic types    =            1
     number of electrons       =        16.00
     number of Kohn-Sham states=           12
     kinetic-energy cutoff     =      40.0000  Ry
     charge density cutoff     =     400.0000  Ry
     convergence threshold     =      1.0E-10
     mixing beta               =       0.3000
     number of iterations used =            8  plain     mixing
     Exchange-correlation      = PBE ( 1  4  3  4 0)

     celldm(1)=   4.662710  celldm(2)=   1.000000  celldm(3)=   8.105698
     celldm(4)=  -0.500000  celldm(5)=   0.000000  celldm(6)=   0.000000

     crystal axes: (cart. coord. in units of alat)
               a(1) = (   1.000000   0.000000   0.000000 )
               a(2) = (  -0.500000   0.866025   0.000000 )
               a(3) = (   0.000000   0.000000   8.105698 )

     reciprocal axes: (cart. coord. in units 2 pi/alat)
               b(1) = (  1.000000  0.577350 -0.000000 )
               b(2) = (  0.000000  1.154701  0.000000 )
               b(3) = (  0.000000 -0.000000  0.123370 )

     PseudoPot. # 1 for C  read from file:
     ../pseudo/C.pbe-rrkjus.UPF
     MD5 check sum: 00fb224312de0c5b6853bd333518df6f
     Pseudo is Ultrasoft, Zval =  4.0
     Generated by new atomic code, or converted to UPF format
     Using radial grid of  627 points,  4 beta functions with:
                l(1) =   0
                l(2) =   0
                l(3) =   1
                l(4) =   1
     Q(r) pseudized with 0 coefficients

     atomic species   valence    mass     pseudopotential
        C              4.00    12.01100     C ( 1.00)

     Starting magnetic structure
     atomic species   magnetization
        C           -0.500

      2 Sym. Ops. (no inversion) found
          (note:  6 additional sym.ops. were found but ignored
           their fractional translations are incommensurate with FFT grid)

                                    s                        frac. trans.

      isym =  1     identity

 cryst.   s( 1) = (     1          0          0      )
                  (     0          1          0      )
                  (     0          0          1      )

 cart.    s( 1) = (  1.0000000  0.0000000  0.0000000 )
                  (  0.0000000  1.0000000  0.0000000 )
                  (  0.0000000  0.0000000  1.0000000 )

      isym =  2     inv. 180 deg rotation - cart. axis [1,0,0]

 cryst.   s( 2) = (    -1          0          0      )
                  (     1          1          0      )
                  (     0          0          1      )

 cart.    s( 2) = ( -1.0000000  0.0000000  0.0000000 )
                  (  0.0000000  1.0000000  0.0000000 )
                  (  0.0000000  0.0000000  1.0000000 )

     point group C_s (m)
     there are  2 classes
     the character table:

       E     s
A'     1.00  1.00
A''    1.00 -1.00

     the symmetry operations in each class:
     E        1
     s        2

   Cartesian axes

     site n.     atom                  positions (alat units)
         1           C   tau(   1) = (   0.0000000   0.0000000   2.0264246  )
         2           C   tau(   2) = (   0.0000000   0.5773284   2.0264246  )
         3           C   tau(   3) = (   0.0000000   0.0000000   3.4530275  )
         4           C   tau(   4) = (   0.0000000   0.5773284   3.4530275  )

   Crystallographic axes

     site n.     atom                  positions (cryst. coord.)
         1           C   tau(   1) = (  0.0000000  0.0000000  0.2500000  )
         2           C   tau(   2) = (  0.3333207  0.6666414  0.2500000  )
         3           C   tau(   3) = (  0.0000000  0.0000000  0.4260000  )
         4           C   tau(   4) = (  0.3333207  0.6666414  0.4260000  )

     number of k points=    86  Marzari-Vanderbilt smearing, width (Ry)=  0.0001
                       cart. coord. in units 2pi/alat
        k(    1) = (   0.0000000   0.0000000   0.0000000), wk =   0.0069444
        k(    2) = (   0.0000000   0.0962250   0.0000000), wk =   0.0138889
        k(    3) = (   0.0000000   0.1924501   0.0000000), wk =   0.0138889
        k(    4) = (   0.0000000   0.2886751   0.0000000), wk =   0.0138889
        k(    5) = (   0.0000000   0.3849002   0.0000000), wk =   0.0138889
        k(    6) = (   0.0000000   0.4811252   0.0000000), wk =   0.0138889
        k(    7) = (   0.0000000  -0.5773503   0.0000000), wk =   0.0069444
        k(    8) = (   0.0833333   0.1443376   0.0000000), wk =   0.0277778
        k(    9) = (   0.0833333   0.2405626   0.0000000), wk =   0.0277778
        k(   10) = (   0.0833333   0.3367877   0.0000000), wk =   0.0277778
        k(   11) = (   0.0833333   0.4330127   0.0000000), wk =   0.0277778
        k(   12) = (   0.0833333   0.5292377   0.0000000), wk =   0.0277778
        k(   13) = (   0.1666667   0.2886751   0.0000000), wk =   0.0277778
        k(   14) = (   0.1666667   0.3849002   0.0000000), wk =   0.0277778
        k(   15) = (   0.1666667   0.4811252   0.0000000), wk =   0.0277778
        k(   16) = (   0.1666667   0.5773503   0.0000000), wk =   0.0138889
        k(   17) = (   0.2500000   0.4330127   0.0000000), wk =   0.0277778
        k(   18) = (   0.2500000   0.5292377   0.0000000), wk =   0.0277778
        k(   19) = (   0.3333333   0.5773503   0.0000000), wk =   0.0138889
        k(   20) = (  -0.0833333   0.0481125   0.0000000), wk =   0.0277778
        k(   21) = (  -0.1666667   0.0962250   0.0000000), wk =   0.0277778
        k(   22) = (  -0.2500000   0.1443376   0.0000000), wk =   0.0277778
        k(   23) = (  -0.3333333   0.1924501   0.0000000), wk =   0.0277778
        k(   24) = (  -0.4166667   0.2405626   0.0000000), wk =   0.0277778
        k(   25) = (   0.5000000  -0.2886751   0.0000000), wk =   0.0138889
        k(   26) = (   0.1666667  -0.0000000   0.0000000), wk =   0.0138889
        k(   27) = (  -0.1666667   0.1924501   0.0000000), wk =   0.0277778
        k(   28) = (   0.2500000   0.0481125   0.0000000), wk =   0.0277778
        k(   29) = (  -0.2500000   0.2405626   0.0000000), wk =   0.0277778
        k(   30) = (   0.3333333   0.0962250   0.0000000), wk =   0.0277778
        k(   31) = (  -0.3333333   0.2886751   0.0000000), wk =   0.0277778
        k(   32) = (   0.4166667   0.1443376   0.0000000), wk =   0.0277778
        k(   33) = (  -0.4166667   0.3367877   0.0000000), wk =   0.0277778
        k(   34) = (   0.5000000   0.1924501   0.0000000), wk =   0.0277778
        k(   35) = (   0.3333333  -0.0000000   0.0000000), wk =   0.0138889
        k(   36) = (  -0.2500000   0.3367877   0.0000000), wk =   0.0277778
        k(   37) = (   0.4166667   0.0481125   0.0000000), wk =   0.0277778
        k(   38) = (  -0.3333333   0.3849002   0.0000000), wk =   0.0277778
        k(   39) = (   0.5000000   0.0962250   0.0000000), wk =   0.0277778
        k(   40) = (  -0.4166667   0.4330127   0.0000000), wk =   0.0277778
        k(   41) = (   0.5000000   0.0000000   0.0000000), wk =   0.0138889
        k(   42) = (  -0.3333333   0.4811252   0.0000000), wk =   0.0277778
        k(   43) = (   0.5833333   0.0481125   0.0000000), wk =   0.0277778
        k(   44) = (   0.0000000   0.0000000   0.0000000), wk =   0.0069444
        k(   45) = (   0.0000000   0.0962250   0.0000000), wk =   0.0138889
        k(   46) = (   0.0000000   0.1924501   0.0000000), wk =   0.0138889
        k(   47) = (   0.0000000   0.2886751   0.0000000), wk =   0.0138889
        k(   48) = (   0.0000000   0.3849002   0.0000000), wk =   0.0138889
        k(   49) = (   0.0000000   0.4811252   0.0000000), wk =   0.0138889
        k(   50) = (   0.0000000  -0.5773503   0.0000000), wk =   0.0069444
        k(   51) = (   0.0833333   0.1443376   0.0000000), wk =   0.0277778
        k(   52) = (   0.0833333   0.2405626   0.0000000), wk =   0.0277778
        k(   53) = (   0.0833333   0.3367877   0.0000000), wk =   0.0277778
        k(   54) = (   0.0833333   0.4330127   0.0000000), wk =   0.0277778
        k(   55) = (   0.0833333   0.5292377   0.0000000), wk =   0.0277778
        k(   56) = (   0.1666667   0.2886751   0.0000000), wk =   0.0277778
        k(   57) = (   0.1666667   0.3849002   0.0000000), wk =   0.0277778
        k(   58) = (   0.1666667   0.4811252   0.0000000), wk =   0.0277778
        k(   59) = (   0.1666667   0.5773503   0.0000000), wk =   0.0138889
        k(   60) = (   0.2500000   0.4330127   0.0000000), wk =   0.0277778
[...]
        k(   72) = (  -0.2500000   0.2405626   0.0000000), wk =   0.0277778
        k(   73) = (   0.3333333   0.0962250   0.0000000), wk =   0.0277778
        k(   74) = (  -0.3333333   0.2886751   0.0000000), wk =   0.0277778
        k(   75) = (   0.4166667   0.1443376   0.0000000), wk =   0.0277778
        k(   76) = (  -0.4166667   0.3367877   0.0000000), wk =   0.0277778
        k(   77) = (   0.5000000   0.1924501   0.0000000), wk =   0.0277778
        k(   78) = (   0.3333333  -0.0000000   0.0000000), wk =   0.0138889
        k(   79) = (  -0.2500000   0.3367877   0.0000000), wk =   0.0277778
        k(   80) = (   0.4166667   0.0481125   0.0000000), wk =   0.0277778
        k(   81) = (  -0.3333333   0.3849002   0.0000000), wk =   0.0277778
        k(   82) = (   0.5000000   0.0962250   0.0000000), wk =   0.0277778
        k(   83) = (  -0.4166667   0.4330127   0.0000000), wk =   0.0277778
        k(   84) = (   0.5000000   0.0000000   0.0000000), wk =   0.0138889
        k(   85) = (  -0.3333333   0.4811252   0.0000000), wk =   0.0277778
        k(   86) = (   0.5833333   0.0481125   0.0000000), wk =   0.0277778

                       cryst. coord.
        k(    1) = (   0.0000000   0.0000000   0.0000000), wk =   0.0069444
        k(    2) = (   0.0000000   0.0833333   0.0000000), wk =   0.0138889
        k(    3) = (   0.0000000   0.1666667   0.0000000), wk =   0.0138889
        k(    4) = (   0.0000000   0.2500000   0.0000000), wk =   0.0138889
        k(    5) = (   0.0000000   0.3333333   0.0000000), wk =   0.0138889
        k(    6) = (   0.0000000   0.4166667   0.0000000), wk =   0.0138889
        k(    7) = (   0.0000000  -0.5000000   0.0000000), wk =   0.0069444
        k(    8) = (   0.0833333   0.0833333   0.0000000), wk =   0.0277778
        k(    9) = (   0.0833333   0.1666667   0.0000000), wk =   0.0277778
        k(   10) = (   0.0833333   0.2500000   0.0000000), wk =   0.0277778
        k(   11) = (   0.0833333   0.3333333   0.0000000), wk =   0.0277778
        k(   12) = (   0.0833333   0.4166667   0.0000000), wk =   0.0277778
        k(   13) = (   0.1666667   0.1666667   0.0000000), wk =   0.0277778
        k(   14) = (   0.1666667   0.2500000   0.0000000), wk =   0.0277778
        k(   15) = (   0.1666667   0.3333333   0.0000000), wk =   0.0277778
        k(   16) = (   0.1666667   0.4166667   0.0000000), wk =   0.0138889
        k(   17) = (   0.2500000   0.2500000   0.0000000), wk =   0.0277778
        k(   18) = (   0.2500000   0.3333333   0.0000000), wk =   0.0277778
        k(   19) = (   0.3333333   0.3333333   0.0000000), wk =   0.0138889
        k(   20) = (  -0.0833333   0.0833333   0.0000000), wk =   0.0277778
        k(   21) = (  -0.1666667   0.1666667   0.0000000), wk =   0.0277778
        k(   22) = (  -0.2500000   0.2500000   0.0000000), wk =   0.0277778
        k(   23) = (  -0.3333333   0.3333333   0.0000000), wk =   0.0277778
        k(   24) = (  -0.4166667   0.4166667   0.0000000), wk =   0.0277778
        k(   25) = (   0.5000000  -0.5000000   0.0000000), wk =   0.0138889
        k(   26) = (   0.1666667  -0.0833333   0.0000000), wk =   0.0138889
        k(   27) = (  -0.1666667   0.2500000   0.0000000), wk =   0.0277778
        k(   28) = (   0.2500000  -0.0833333   0.0000000), wk =   0.0277778
        k(   29) = (  -0.2500000   0.3333333   0.0000000), wk =   0.0277778
        k(   30) = (   0.3333333  -0.0833333   0.0000000), wk =   0.0277778
        k(   31) = (  -0.3333333   0.4166667   0.0000000), wk =   0.0277778
        k(   32) = (   0.4166667  -0.0833333   0.0000000), wk =   0.0277778
        k(   33) = (  -0.4166667   0.5000000   0.0000000), wk =   0.0277778
        k(   34) = (   0.5000000  -0.0833333   0.0000000), wk =   0.0277778
        k(   35) = (   0.3333333  -0.1666667   0.0000000), wk =   0.0138889
        k(   36) = (  -0.2500000   0.4166667   0.0000000), wk =   0.0277778
        k(   37) = (   0.4166667  -0.1666667   0.0000000), wk =   0.0277778
        k(   38) = (  -0.3333333   0.5000000   0.0000000), wk =   0.0277778
        k(   39) = (   0.5000000  -0.1666667   0.0000000), wk =   0.0277778
        k(   40) = (  -0.4166667   0.5833333   0.0000000), wk =   0.0277778
        k(   41) = (   0.5000000  -0.2500000   0.0000000), wk =   0.0138889
        k(   42) = (  -0.3333333   0.5833333   0.0000000), wk =   0.0277778
        k(   43) = (   0.5833333  -0.2500000   0.0000000), wk =   0.0277778
        k(   44) = (   0.0000000   0.0000000   0.0000000), wk =   0.0069444
        k(   45) = (   0.0000000   0.0833333   0.0000000), wk =   0.0138889
        k(   46) = (   0.0000000   0.1666667   0.0000000), wk =   0.0138889
        k(   47) = (   0.0000000   0.2500000   0.0000000), wk =   0.0138889
        k(   48) = (   0.0000000   0.3333333   0.0000000), wk =   0.0138889
        k(   49) = (   0.0000000   0.4166667   0.0000000), wk =   0.0138889
        k(   50) = (   0.0000000  -0.5000000   0.0000000), wk =   0.0069444
        k(   51) = (   0.0833333   0.0833333   0.0000000), wk =   0.0277778
        k(   52) = (   0.0833333   0.1666667   0.0000000), wk =   0.0277778
        k(   53) = (   0.0833333   0.2500000   0.0000000), wk =   0.0277778
        k(   54) = (   0.0833333   0.3333333   0.0000000), wk =   0.0277778
        k(   55) = (   0.0833333   0.4166667   0.0000000), wk =   0.0277778
        k(   56) = (   0.1666667   0.1666667   0.0000000), wk =   0.0277778
        k(   57) = (   0.1666667   0.2500000   0.0000000), wk =   0.0277778
        k(   58) = (   0.1666667   0.3333333   0.0000000), wk =   0.0277778
        k(   59) = (   0.1666667   0.4166667   0.0000000), wk =   0.0138889
        k(   60) = (   0.2500000   0.2500000   0.0000000), wk =   0.0277778
[...]
        k(   72) = (  -0.2500000   0.3333333   0.0000000), wk =   0.0277778
        k(   73) = (   0.3333333  -0.0833333   0.0000000), wk =   0.0277778
        k(   74) = (  -0.3333333   0.4166667   0.0000000), wk =   0.0277778
        k(   75) = (   0.4166667  -0.0833333   0.0000000), wk =   0.0277778
        k(   76) = (  -0.4166667   0.5000000   0.0000000), wk =   0.0277778
        k(   77) = (   0.5000000  -0.0833333   0.0000000), wk =   0.0277778
        k(   78) = (   0.3333333  -0.1666667   0.0000000), wk =   0.0138889
        k(   79) = (  -0.2500000   0.4166667   0.0000000), wk =   0.0277778
        k(   80) = (   0.4166667  -0.1666667   0.0000000), wk =   0.0277778
        k(   81) = (  -0.3333333   0.5000000   0.0000000), wk =   0.0277778
        k(   82) = (   0.5000000  -0.1666667   0.0000000), wk =   0.0277778
        k(   83) = (  -0.4166667   0.5833333   0.0000000), wk =   0.0277778
        k(   84) = (   0.5000000  -0.2500000   0.0000000), wk =   0.0138889
        k(   85) = (  -0.3333333   0.5833333   0.0000000), wk =   0.0277778
        k(   86) = (   0.5833333  -0.2500000   0.0000000), wk =   0.0277778

     Largest allocated arrays     est. size (Mb)     dimensions
     Largest temporary arrays     est. size (Mb)     dimensions

     Initial potential from superposition of free atoms

     starting charge   15.99979, renormalised to   16.00000

     negative rho (up, down):  2.759E-06 8.276E-06
     Starting wfc are   16 randomized atomic wfcs

     Self-consistent Calculation

     iteration #  1     ecut=    40.00 Ry     beta=0.30
     Davidson diagonalization with overlap
     ethr =  1.00E-02,  avg # of iterations =  3.3

     negative rho (up, down):  1.496E-06 5.221E-06

     Magnetic moment per site:
     atom:    1    charge:    1.6474    magn:   -0.5743    constr:    0.0000
     atom:    2    charge:    1.6474    magn:   -0.5743    constr:    0.0000
     atom:    3    charge:    1.6479    magn:   -0.5744    constr:    0.0000
     atom:    4    charge:    1.6479    magn:   -0.5744    constr:    0.0000

 ------ SPIN UP ------------

          k = 0.0000 0.0000 0.0000     band energies (ev):

   -21.7336 -21.6514  -9.3664  -8.7048  -5.8619  -5.8601  -5.8532  -5.8514
     3.3181   5.8462   5.8626   5.8655

     occupation numbers
     1.0000   1.0000   1.0000   1.0000   1.0000   1.0000   1.0000   1.0000
     0.0000   0.0000   0.0000   0.0000

[...]

          k =-0.0833 0.0481 0.0000     band energies (ev):

[...]

 ------ SPIN DOWN ----------

[...]

     the Fermi energy is    -3.5909 ev

!    total energy              =     -45.36199724 Ry
     Harris-Foulkes estimate   =     -45.23795544 Ry
     estimated scf accuracy    <       0.54465008 Ry

     The total energy is the sum of the following terms:

     one-electron contribution =    -522.12806523 Ry
     hartree contribution      =     260.97678532 Ry
     xc contribution           =     -13.91774379 Ry
     ewald contribution        =     225.00644935 Ry
     scf correction            =       4.70057674 Ry
     smearing contrib. (-TS)   =       0.00000038 Ry

     total magnetization       =    -0.47 Bohr mag/cell
     absolute magnetization    =     0.52 Bohr mag/cell

[...]

          k =-0.3333 0.4811 0.0000     band energies (ev):

[...]

          k = 0.5833 0.0481 0.0000     band energies (ev):

[...]

     one-electron contribution =    -520.05697060 Ry
     hartree contribution      =     263.50241132 Ry
     xc contribution           =     -14.03041304 Ry
     ewald contribution        =     225.00644935 Ry
     scf correction            =      -0.00013814 Ry
     smearing contrib. (-TS)   =       0.00000000 Ry

[...]

     iteration # 13     ecut=    40.00 Ry     beta=0.30
     Davidson diagonalization with overlap
     ethr =  1.67E-12,  avg # of iterations =  2.0

     negative rho (up, down):  6.896E-07 6.896E-07

     Magnetic moment per site:
     atom:    1    charge:    1.7148    magn:   -0.0000    constr:    0.0000
     atom:    2    charge:    1.7148    magn:   -0.0000    constr:    0.0000
     atom:    3    charge:    1.7153    magn:   -0.0000    constr:    0.0000
     atom:    4    charge:    1.7153    magn:   -0.0000    constr:    0.0000

     End of self-consistent calculation

 ------ SPIN UP ------------

          k = 0.0000 0.0000 0.0000 (  3053 PWs)   bands (ev):

[...]

          k =-0.0833 0.0481 0.0000 (  3052 PWs)   bands (ev):

[...]

 ------ SPIN DOWN ----------

[...]

          k =-0.3333 0.4811 0.0000 (  3013 PWs)   bands (ev):

[...]

          k = 0.5833 0.0481 0.0000 (  3013 PWs)   bands (ev):

   -14.3134 -14.2436 -12.4526 -12.3950 -10.1688 -10.1276  -2.1129  -1.5698
     0.5523   1.0515   9.7506  10.7431

     occupation numbers
     1.0000   1.0000   1.0000   1.0000   1.0000   1.0000   1.0000   1.0000
     0.0000   0.0000   0.0000   0.0000

     the Fermi energy is    -0.6371 ev

!    total energy              =     -45.57866113 Ry
     Harris-Foulkes estimate   =     -45.57866112 Ry
     estimated scf accuracy    <          3.1E-12 Ry

     The total energy is the sum of the following terms:

     one-electron contribution =    -520.05710823 Ry
     hartree contribution      =     263.50241040 Ry
     xc contribution           =     -14.03041264 Ry
     ewald contribution        =     225.00644935 Ry
     smearing contrib. (-TS)   =       0.00000000 Ry

     total magnetization       =     0.00 Bohr mag/cell
     absolute magnetization    =     0.00 Bohr mag/cell

     convergence has been achieved in  13 iterations

     Forces acting on atoms (Ry/au):

     atom    1 type  1   force =     0.00000000   -0.00011459   -0.00187052
     atom    2 type  1   force =     0.00000000    0.00011459   -0.00187052
     atom    3 type  1   force =     0.00000000   -0.00011461    0.00187052
     atom    4 type  1   force =     0.00000000    0.00011462    0.00187052
     The non-local contrib.  to forces
     atom    1 type  1   force =     0.00000000   -0.00003902   -0.00119483
     atom    2 type  1   force =     0.00000000    0.00003903   -0.00119483
     atom    3 type  1   force =     0.00000000   -0.00003904    0.00118426
     atom    4 type  1   force =     0.00000000    0.00003904    0.00118426
     The ionic contribution  to forces
     atom    1 type  1   force =     0.00000000   -0.00037336  -13.84074850
     atom    2 type  1   force =     0.00000000    0.00037336  -13.84074850
     atom    3 type  1   force =     0.00000000   -0.00037336   13.84074850
     atom    4 type  1   force =    -0.00000000    0.00037336   13.84074850
     The local contribution  to forces
     atom    1 type  1   force =     0.00000000    0.00029789   13.84006893
     atom    2 type  1   force =    -0.00000000   -0.00029788   13.84006893
     atom    3 type  1   force =     0.00000000    0.00029780  -13.84006884
     atom    4 type  1   force =    -0.00000000   -0.00029780  -13.84006886
     The core correction contribution to forces
     atom    1 type  1   force =     0.00000000    0.00000000    0.00000000
     atom    2 type  1   force =     0.00000000    0.00000000    0.00000000
     atom    3 type  1   force =     0.00000000    0.00000000    0.00000000
     atom    4 type  1   force =     0.00000000    0.00000000    0.00000000
     The Hubbard contrib.    to forces
     atom    1 type  1   force =     0.00000000    0.00000000    0.00000000
     atom    2 type  1   force =     0.00000000    0.00000000    0.00000000
     atom    3 type  1   force =     0.00000000    0.00000000    0.00000000
     atom    4 type  1   force =     0.00000000    0.00000000    0.00000000
     The SCF correction term to forces
     atom    1 type  1   force =    -0.00000000   -0.00000010   -0.00000168
     atom    2 type  1   force =     0.00000000    0.00000009   -0.00000168
     atom    3 type  1   force =     0.00000000   -0.00000001    0.00000105
     atom    4 type  1   force =    -0.00000000    0.00000002    0.00000106

     Total force =     0.003748     Total SCF correction =     0.000003

     entering subroutine stress ...

          total   stress  (Ry/bohr**3)                   (kbar)     P=   -5.04
  -0.00006583   0.00000000   0.00000000         -9.68      0.00      0.00
   0.00000000  -0.00006555  -0.00000000          0.00     -9.64     -0.00
   0.00000000  -0.00000000   0.00002867          0.00     -0.00      4.22

     kinetic stress (kbar)   3525.16      0.00      0.00
                                0.00   3525.04     -0.00
                                0.00     -0.00   4088.12

     local   stress (kbar)-111296.80      0.00     -0.00
                                0.00-111297.47      0.00
                               -0.00      0.00 113617.87

     nonloc. stress (kbar)   -152.55      0.00      0.00
                                0.00   -152.53     -0.00
                                0.00     -0.00   -151.51

     hartree stress (kbar)  54127.59     -0.00      0.00
                               -0.00  54127.69     -0.00
                                0.00     -0.00 -53782.97

     exc-cor stress (kbar)   -891.21      0.00     -0.00
                                0.00   -891.21     -0.00
                               -0.00     -0.00   -924.60

     corecor stress (kbar)      0.00      0.00      0.00
                                0.00      0.00      0.00
                                0.00      0.00      0.00

     ewald   stress (kbar)  54678.12      0.00     -0.00
                                0.00  54678.84      0.00
                               -0.00      0.00 -62842.69

     hubbard stress (kbar)      0.00      0.00      0.00
                                0.00      0.00      0.00
                                0.00      0.00      0.00

     london  stress (kbar)      0.00      0.00      0.00
                                0.00      0.00      0.00
                                0.00      0.00      0.00

     XDM     stress (kbar)      0.00      0.00      0.00
                                0.00      0.00      0.00
                                0.00      0.00      0.00

     dft-nl  stress (kbar)      0.00      0.00      0.00
                                0.00      0.00      0.00
                                0.00      0.00      0.00

     Writing output data file gra.spin.save

     General routines

     Parallel routines

   This run was terminated on:  14: 3:16  16Apr2020

   JOB DONE.